#######################################################
#CASTEP cell file: experimental_structure.cell
#Created using the Atomic Simulation Environment (ASE)#
#######################################################

%BLOCK LATTICE_CART
 4.760200  0.000000  0.000000
-2.380100  4.122454  0.000000
 0.000000  0.000000 12.993000
%ENDBLOCK LATTICE_CART

%BLOCK POSITIONS_ABS
Al  0.000000  0.000000  1.921665
Al  0.000000  0.000000  8.418165
Al  0.000000  0.000000 11.071335
Al  0.000000  0.000000  4.574835
Al  2.380100  1.374151  6.252665
Al  2.380100  1.374151 12.749165
Al  2.380100  1.374151  2.409335
Al  2.380100  1.374151  8.905835
Al  0.000000  2.748303 10.583665
Al  0.000000  2.748303  4.087165
Al  0.000000  2.748303  6.740335
Al  0.000000  2.748303  0.243835
O  1.457859  0.000000  3.248250
O  1.651171  2.859911  3.248250
O -0.728929  1.262543  3.248250
O  0.728929  1.262543  9.744750
O -1.651171  2.859911  9.744750
O  3.302341  0.000000  9.744750
O  3.837959  1.374151  7.579250
O  1.651171  0.111609  7.579250
O  1.651171  2.636694  7.579250
O  3.109029  2.636694  1.082750
O  3.109029  0.111609  1.082750
O  0.922241  1.374151  1.082750
O  1.457859  2.748303 11.910250
O -0.728929  1.485760 11.910250
O -0.728929  4.010846 11.910250
O  0.728929  4.010846  5.413750
O  0.728929  1.485760  5.413750
O -1.457859  2.748303  5.413750
%ENDBLOCK POSITIONS_ABS

