# CELL file written 18:42:03 (GMT+1.0) 14th June 2022 from run geom

%BLOCK lattice_cart
   ANG
       7.15854900000000        4.13299600000000        13.0126620000000    
      -7.15854100000000        4.13298700000000        13.0126610000000    
     -0.400000000000000E-05   -8.26598000000000        13.0126600000000    
%ENDBLOCK lattice_cart

%BLOCK cell_constraints
      0   0   0
      0   0   0
%ENDBLOCK cell_constraints

%BLOCK positions_frac
   Li             0.121185322303232       0.121185430040019       0.121185142581978
   O              0.185450816567628       0.315456194121685       0.083162928458848
   O              0.315456302701826       0.083162959802180       0.185450828162814
   O              0.083162771539059       0.185450954755974       0.315456253382861
   O              0.010870062954108       0.257348369656314       0.151156333420626
   O              0.257347865713985       0.151156173032178       0.010870871769574
   O              0.151156016964573       0.010870474487138       0.257348460929166
   O              0.185450376800661       0.314737074562762       0.416767691485293
   O              0.314914076925200       0.083469373760520       0.518626451923530
   O              0.083559238044288       0.185095591634975       0.647670574043533
   O              0.018728384476357       0.249933192254559       0.481502462546776
   O              0.250117691907718       0.148224685699763       0.352170344655160
   O              0.148149881899328       0.018637082558392       0.583724037226949
   O              0.185097367805143       0.314365235964185       0.750861261773960
   O              0.315621775700585       0.082915887241081       0.850914137235856
   O              0.081121951029871       0.187457581840293       0.974857208278626
   O              0.016921221480408       0.251352734747995       0.811805873820206
   O              0.249917820702884       0.148129572396403       0.685165454390649
   O              0.148121617346834       0.017505477095781       0.916278599047231
   O              0.185095598879215       0.647670796239076       0.083559212127210
   O              0.314737005256755       0.416767877447680       0.185450380265467
   O              0.083469329708682       0.518626652890871       0.314913953864562
   O              0.018636948686638       0.583724248282911       0.148149608405553
   O              0.249933108733037       0.481502523879591       0.018728464910382
   O              0.148224704785305       0.352170582904692       0.250117615542786
   O              0.185250097102260       0.647242186648978       0.417189274350459
   O              0.314893737329497       0.416589127787593       0.518881288263580
   O              0.083448379775234       0.518563026362815       0.647840620694717
   O              0.018585762707482       0.583451296387541       0.481187742987782
   O              0.250185286080134       0.481451991272545       0.351972105084589
   O              0.148204366287695       0.352209175939937       0.583151269106133
   O              0.185286685179894       0.647844138477817       0.750251568977144
   O              0.315216163459830       0.416452070183095       0.851964626715666
   O              0.083192260218779       0.518923584861323       0.981396116376182
   O              0.018686881310527       0.583204278064570       0.814388667752206
   O              0.249802764172357       0.481998700345225       0.685088043116149
   O              0.147488781186601       0.353076022522215       0.916454373750430
   O              0.187457269403502       0.974856648125173       0.081122346235005
   O              0.314365443019874       0.750861275349238       0.185097485632927
   O              0.082915657052234       0.850914154778083       0.315621930515276
   O              0.017505049630986       0.916278774196831       0.148121723780350
   O              0.251352783597312       0.811805942588938       0.016921095695871
   O              0.148129640842954       0.685165894482341       0.249917781999341
   O              0.186105754911137       0.980944472454640       0.418748763103412
   O              0.315198045819833       0.749514224537390       0.519636478943505
   O              0.083277092811799       0.851568344078928       0.648529980520552
   O              0.018194725064980       0.916025666059590       0.482618033768348
   O              0.252282915176441       0.810764089505267       0.353781446648484
   O              0.148037817082126       0.685463182076143       0.583238149949945
   O              0.185398906486706       0.981096802731947       0.749760013857478
   O              0.314751113947729       0.749922483235906       0.851315157190943
   O              0.083083781121592       0.851352365319259       0.981104890161580
   O              0.018498460767282       0.916481508233563       0.814567882354103
   O              0.249925146994850       0.814522752479146       0.685489358706413
   O              0.148026216238922       0.685159282294089       0.916690814370742
   O              0.518626556265424       0.314914276853802       0.083469193375564
   O              0.647670655248047       0.083559453261901       0.185095426404556
   O              0.416767754897554       0.185450677501253       0.314736871293419
   O              0.352170496932395       0.250117879043220       0.148224480154036
   O              0.583724161721113       0.148149877504391       0.018636782325609
   O              0.481502534159173       0.018728566349771       0.249932915813937
   O              0.518881261127206       0.314893845541294       0.416589110087407
   O              0.647840564920661       0.083448348889941       0.518563117543012
   O              0.417189279736659       0.185250128032925       0.647242225611421
   O              0.351972037637075       0.250185337994281       0.481451923032289
   O              0.583151338236169       0.148204584344489       0.352209050085459
   O              0.481187708762893       0.018585889860785       0.583451213354721
   O              0.519636596478829       0.315198252745869       0.749514089221393
   O              0.648530102727737       0.083277203908235       0.851568176551154
   O              0.418748658536741       0.186105848185039       0.980944303747646
   O              0.353781356069256       0.252283083092677       0.810764128094997
   O              0.583238131006022       0.148037983907483       0.685463154412869
   O              0.482617990897110       0.018194994320475       0.916025481165100
   O              0.518563115446802       0.647840728264050       0.083448439903869
   O              0.647242119121367       0.417189429908227       0.185250081510432
   O              0.416589031518247       0.518881463556328       0.314893859673838
   O              0.352208998004063       0.583151710019316       0.148204441377326
   O              0.583451317837842       0.481187858591179       0.018585772691129
   O              0.481452020933588       0.351972433876277       0.250185172426260
   O              0.518814465626997       0.648007132128178       0.416747604635652
   O              0.648007048774777       0.416747786446199       0.518814366596219
   O              0.416747551408711       0.518814677826337       0.648006989843655
   O              0.352393018518908       0.582809525375334       0.481938191204997
   O              0.582809534362102       0.481938315950932       0.352393090732500
   O              0.481938090674024       0.352393229101432       0.582809425557011
   O              0.518748422880287       0.647889413773734       0.750017844352736
   O              0.647858307766254       0.416850500099469       0.851815616842174
   O              0.416545272346678       0.518776872023083       0.981473360981268
   O              0.352068070503501       0.583232480827194       0.814685012011051
   O              0.583391063282426       0.481510856831074       0.685288488807374
   O              0.481856370102378       0.352527859337009       0.916541701674675
   O              0.518923563773379       0.981396165407497       0.083192113335522
   O              0.647844090085392       0.750251687989557       0.185286690315795
   O              0.416451924900023       0.851964816424291       0.315216052987628
   O              0.353076152011079       0.916454379984210       0.147488708846224
   O              0.583204282414630       0.814388780764960       0.018686809501095
   O              0.481998527418906       0.685088322430462       0.249802833565127
   O              0.518776675872307       0.981473471352908       0.416545218821469
   O              0.647889251976817       0.750017991575850       0.518748360046188
   O              0.416850303864826       0.851815875952179       0.647858247732695
   O              0.352527593581873       0.916541848843007       0.481856255056108
   O              0.583232368077780       0.814685142804848       0.352067942182766
   O              0.481510727421069       0.685288686723863       0.583391016111790
   O              0.519149518878155       0.981307126464212       0.749518649623232
   O              0.648034134550970       0.750010102893469       0.851792637954411
   O              0.417489924496655       0.851196843989137       0.980366801960569
   O              0.352583214286619       0.916295666076034       0.813972662426846
   O              0.583346678772043       0.814468871118654       0.685333000816619
   O              0.481664404870245       0.684850148724470       0.916625489841783
   O              0.850914059004259       0.315621885641807       0.082915770630403
   O              0.974856499943968       0.081122158939603       0.187457394315106
   O              0.750861174684225       0.185097529760212       0.314365334296338
   O              0.685165644681513       0.249917893700731       0.148129680251421
   O              0.916278665703497       0.148121756587456       0.017505110882913
   O              0.811805579973084       0.016921200078838       0.251352829739034
   O              0.851964561081652       0.315216312738389       0.416451944961317
   O              0.981396126876493       0.083192379809117       0.518923520685092
   O              0.750251581966332       0.185286881248679       0.647844080486358
   O              0.685088050370295       0.249802965150523       0.481998633894888
   O              0.916454071861914       0.147488692349869       0.353076353759409
   O              0.814388646421863       0.018686857117876       0.583204375971471
   O              0.851315268077350       0.314751118053020       0.749922197275709
   O              0.981104951325016       0.083083794121243       0.851351986153542
   O              0.749760046960644       0.185399213048748       0.981096681877449
   O              0.685489233294409       0.249925447304540       0.814522713728329
   O              0.916690845202868       0.148026245016633       0.685159046384291
   O              0.814567980622583       0.018498594310867       0.916481327251026
   O              0.851568338405645       0.648529963709054       0.083276987456318
   O              0.980944507716847       0.418748696423192       0.186105743489780
   O              0.749514111148556       0.519636633737409       0.315197977067232
   O              0.685463027592747       0.583238314724052       0.148037916642247
   O              0.916025706919911       0.482617856145272       0.018194806372717
   O              0.810764102620852       0.353781527309776       0.252282884995909
   O              0.851815759391720       0.647858381843780       0.416850173953481
   O              0.981473294259317       0.416545346622500       0.518776527792215
   O              0.750017927374574       0.518748602951884       0.647889148566595
   O              0.685288522483611       0.583391252006976       0.481510568131661
   O              0.916541749296597       0.481856319514868       0.352527540310708
   O              0.814684985829612       0.352068230630726       0.583232266584259
   O              0.851792709964740       0.648034075183184       0.750009975037484
   O              0.980366688963601       0.417490148975487       0.851196482671701
   O              0.749518559383523       0.519149712532131       0.981307058453667
   O              0.685333045595145       0.583346825051453       0.814468838020497
   O              0.916625615211802       0.481664442542617       0.684849829971838
   O              0.813972756625809       0.352583412492829       0.916295370203814
   O              0.851352254015260       0.981105213848321       0.083083698846231
   O              0.981096807766009       0.749760145953701       0.185398939686473
   O              0.749922427997029       0.851315282403322       0.314750880271627
   O              0.685159170753653       0.916690992323624       0.148026138658111
   O              0.916481471659516       0.814568027349623       0.018498366607144
   O              0.814522702785310       0.685489412467238       0.249925029468057
   O              0.851196341730251       0.980366766220917       0.417490047343649
   O              0.981307086500662       0.749518588774174       0.519149579064080
   O              0.750010090772336       0.851792676072435       0.648034048718840
   O              0.684849771035313       0.916625570481811       0.481664403456852
   O              0.916295461799301       0.813972735359123       0.352583202599857
   O              0.814468870236398       0.685333110073812       0.583346644268786
   O              0.852185115846154       0.981204839255910       0.749674232682688
   O              0.981204782976461       0.749674233991787       0.852185126062477
   O              0.749674201163143       0.852185277749141       0.981204719577675
   O              0.685679637159596       0.916415470527263       0.814498281031422
   O              0.916415361052771       0.814498372100998       0.685679588866473
   O              0.814498424347378       0.685679579158414       0.916415349541492
   Al             0.052894159891863       0.052894447468354       0.052894533216314
   Al             0.215419179717360       0.215419248382672       0.215419148273923
   Al             0.283838843439719       0.283839003886815       0.283838763510791
   Al             0.050528139366265       0.048926041253945       0.379785848123288
   Al             0.215937557288767       0.216065182780630       0.549787615133751
   Al             0.283668777711631       0.283997249377389       0.618858831300427
   Al             0.117428389811214       0.116669373925058       0.450288154668245
   Al             0.049528800674735       0.049337143186929       0.716041866881281
   Al             0.212029252967993       0.211853640017184       0.891174236310797
   Al             0.284874182581184       0.281763033638045       0.950386273674742
   Al             0.117095199591067       0.117120660017172       0.785481451985268
   Al             0.048926059798331       0.379785580543962       0.050528298155863
   Al             0.216065172746521       0.549787804439201       0.215937567714092
   Al             0.283997150784689       0.618859038952366       0.283668804907180
   Al             0.116669298333085       0.450288350543951       0.117428195542503
   Al             0.049506546057295       0.382431149075055       0.382618533779316
   Al             0.215771504075188       0.549474159108409       0.549594281310736
   Al             0.283836575678598       0.617438948474540       0.617407537610955
   Al             0.117674869382714       0.450752225575395       0.450606152124972
   Al             0.049476217115851       0.382148443776343       0.716506197582591
   Al             0.215859868702081       0.548476852263741       0.883138054460938
   Al             0.283714803362486       0.617430316943134       0.950860237594386
   Al             0.117929695344496       0.448943860703910       0.784785747563333
   Al             0.049337215796863       0.716041955580983       0.049528730306622
   Al             0.211853554711281       0.891174138973026       0.212029512686118
   Al             0.281762986304948       0.950386540575902       0.284874063259972
   Al             0.117120534853641       0.785481836832722       0.117095089667594
   Al             0.049347825807023       0.716655273371994       0.382463442125606
   Al             0.215971198543376       0.882490742861386       0.549815067286421
   Al             0.283975685726477       0.950927639287976       0.617329868822614
   Al             0.118718572097363       0.784836099658755       0.448880178674451
   Al             0.049116753287023       0.715696565577088       0.715981837475430
   Al             0.215508204110605       0.883084389848031       0.882979898514375
   Al             0.283214986833428       0.950570804691380       0.951024439135189
   Al             0.117187441885800       0.783667556618734       0.784239663082928
   Al             0.379785866184098       0.050528239769152       0.048925910168942
   Al             0.549787728393921       0.215937752454151       0.216065102779917
   Al             0.618858848607480       0.283668995407944       0.283997178412505
   Al             0.450288302769178       0.117428522179584       0.116669085815117
   Al             0.382618664876464       0.049506574253888       0.382431073352716
   Al             0.549594207388116       0.215771588909053       0.549474270470796
   Al             0.617407543989720       0.283836860468126       0.617438710057719
   Al             0.450606285752529       0.117674968311349       0.450752042916421
   Al             0.382463505877939       0.049347764518463       0.716655311671546
   Al             0.549815124404970       0.215971248854570       0.882490637201981
   Al             0.617329866476466       0.283975916052942       0.950927448549529
   Al             0.448880126749886       0.118718714232470       0.784835991325509
   Al             0.382431209707991       0.382618701389699       0.049506485115221
   Al             0.549474139989851       0.549594395084457       0.215771559466362
   Al             0.617438751412888       0.617407769866357       0.283836607616275
   Al             0.450752097054964       0.450606592670034       0.117674755638603
   Al             0.382764177159579       0.382764281794244       0.382764308444136
   Al             0.549338082482281       0.549338144830247       0.549338035297662
   Al             0.617362276702458       0.617362512481796       0.617362211654248
   Al             0.450759511680651       0.450759681333645       0.450759502221215
   Al             0.382586345947453       0.382921623420672       0.715662379144538
   Al             0.549329454535822       0.549266058424394       0.882865558769316
   Al             0.617212605340716       0.617392348546845       0.950964429715271
   Al             0.450575046269524       0.450411418425783       0.784258244665755
   Al             0.382148489638171       0.716506441074379       0.049476166981574
   Al             0.548476826561450       0.883138021968344       0.215859888039727
   Al             0.617430153202606       0.950860474246580       0.283714693176016
   Al             0.448943773450102       0.784785984969889       0.117929782599129
   Al             0.382921502265594       0.715662495460726       0.382586351722140
   Al             0.549265894852002       0.882865653626423       0.549329408511377
   Al             0.617392066234280       0.950964532925800       0.617212616405615
   Al             0.450411233954536       0.784258464464736       0.450574990904795
   Al             0.382490385059142       0.715954985241371       0.716143237115313
   Al             0.548936676437033       0.883005540259270       0.882575471629143
   Al             0.616395670463113       0.951075845736834       0.950900884175410
   Al             0.450508286982206       0.783986499714146       0.784229641068943
   Al             0.716042026518343       0.049528950107796       0.049336984576294
   Al             0.891173998845581       0.212029418478312       0.211853666229373
   Al             0.950386210107100       0.284874216202156       0.281763074915355
   Al             0.785481595875074       0.117095341547858       0.117120473670567
   Al             0.716506191927210       0.049476270868715       0.382148432575582
   Al             0.883137993581327       0.215859986946129       0.548476728035861
   Al             0.950860254022797       0.283714913865786       0.617430036301002
   Al             0.784785687403470       0.117929863995472       0.448943846805193
   Al             0.715981844793096       0.049116757006666       0.715696553474605
   Al             0.882979982475256       0.215508198801238       0.883084278647522
   Al             0.951024332778064       0.283215322599374       0.950570546974237
   Al             0.784239736792869       0.117187601064388       0.783667377703227
   Al             0.716655378581259       0.382463531900888       0.049347707148130
   Al             0.882490732709524       0.549815096023317       0.215971065024507
   Al             0.950927513729687       0.617330020764147       0.283975586412771
   Al             0.784835968527320       0.448880366811036       0.118718484884891
   Al             0.715662490652289       0.382586453954089       0.382921379208351
   Al             0.882865620477360       0.549329457271182       0.549265852113344
   Al             0.950964423896220       0.617212622755059       0.617392124082428
   Al             0.784258290893415       0.450575217237065       0.450411131689077
   Al             0.716143350541402       0.382490418190482       0.715954762602789
   Al             0.882575388333974       0.548936718195880       0.883005533853778
   Al             0.950901020484883       0.616395638728977       0.951075687324499
   Al             0.784229764729883       0.450508500602727       0.783986194921777
   Al             0.715696646721290       0.715981830498509       0.049116660774735
   Al             0.883084232868870       0.882979984958007       0.215508099310971
   Al             0.950570337473126       0.951024343281532       0.283215304331773
   Al             0.783667500856250       0.784239836036449       0.117187355577042
   Al             0.715954927999134       0.716143374947159       0.382490157440122
   Al             0.883005527561603       0.882575394488156       0.548936765454115
   Al             0.951075717527939       0.950901038533854       0.616395599697877
   Al             0.783986261302896       0.784229874223710       0.450508194340718
   Al             0.716000849316699       0.716000816570359       0.716000767981527
   Al             0.882531065734741       0.882531010429480       0.882531000477367
   Al             0.950695976718649       0.950696146059433       0.950695957673719
   Al             0.783991176651113       0.783991181726837       0.783991128148306
%ENDBLOCK positions_frac

FIX_COM : true

%BLOCK species_q
   barn
   Li        0.3260000000E-01
%ENDBLOCK species_q

%BLOCK species_pot
   Li      1|1.0|14|16|18|10U:20(qc=7)
   O       2|1.1|17|20|23|20:21(qc=8)
   Al      3|2.2|2.2|1.4|4|5|5|30:31:32U2U2
%ENDBLOCK species_pot

SYMMETRY_TOL :     0.001000

%BLOCK symmetry_ops
# Symm. op. 1       E
          1.000000000000000       0.000000000000000       0.000000000000000
          0.000000000000000       1.000000000000000       0.000000000000000
          0.000000000000000       0.000000000000000       1.000000000000000
          0.000000000000000       0.000000000000000       0.000000000000000
%ENDBLOCK symmetry_ops

kpoint_mp_grid :    2   2   2

