# CELL file written 16:52:52 (GMT+1.0) 14th June 2022 from run geom

%BLOCK lattice_cart
   ANG
       7.15854900000000        4.13299600000000        13.0126620000000    
      -7.15854100000000        4.13298700000000        13.0126610000000    
     -0.400000000000000E-05   -8.26598000000000        13.0126600000000    
%ENDBLOCK lattice_cart

%BLOCK cell_constraints
      0   0   0
      0   0   0
%ENDBLOCK cell_constraints

%BLOCK positions_frac
   Li             0.166937611055776       0.166063005756405       0.167108652960973
   O              0.187678738604655       0.309720198442606       0.086957086116911
   O              0.086736249652040       0.186682104094281       0.311008510400455
   O              0.023371840644322       0.246371583860305       0.146276832106588
   O              0.247229856138412       0.145670467074945       0.023876108336836
   O              0.146278366974659       0.023507430360608       0.246141357951004
   O              0.185840003160691       0.315275703789949       0.418085173622822
   O              0.315742767825695       0.082900792860877       0.519265254399685
   O              0.083947798890214       0.184997729988841       0.647876033398870
   O              0.019612725299845       0.249950671207606       0.480669649367940
   O              0.250572169939057       0.148879945774927       0.355384478351172
   O              0.148526650761146       0.018096109042790       0.583442100868835
   O              0.185849188414246       0.314671654705103       0.750154377247598
   O              0.314718990178085       0.082705060699475       0.853134976029344
   O              0.083934353572095       0.183599513942996       0.978839233933708
   O              0.018707584603872       0.249815079075367       0.814437229267035
   O              0.250346116592066       0.147830218567314       0.685795229104469
   O              0.148479071701454       0.017505102817977       0.915567579836648
   O              0.185758674475229       0.647398523642035       0.083581506523631
   O              0.316082515277530       0.417531215898778       0.185449840994157
   O              0.083831486621378       0.518571871325634       0.315213028671877
   O              0.019049559008473       0.582611743066279       0.148239077002195
   O              0.250772899620811       0.479935190251193       0.019425253389151
   O              0.150481252254179       0.353191201611133       0.250369571488885
   O              0.185938590806550       0.648489707626287       0.416363436670787
   O              0.315296081144181       0.416706291436975       0.518808860243906
   O              0.083824637494016       0.518475655390357       0.648270579926461
   O              0.019152712985168       0.583280619428919       0.481682099940558
   O              0.250621180199601       0.481470389335161       0.352266766156313
   O              0.148674513121724       0.351765676640946       0.583927617178362
   O              0.185829774588354       0.647658855253233       0.750087621458192
   O              0.315054909981752       0.416176310553669       0.852456878744276
   O              0.084643779676267       0.516502909690961       0.982126629242924
   O              0.019338466084718       0.582654676655662       0.815214165081548
   O              0.250584380922418       0.480866451959475       0.685653533715833
   O              0.148844184089239       0.350511723276214       0.917739419780025
   O              0.184442660185542       0.978502974159606       0.083402213897334
   O              0.315560784526293       0.749827557864305       0.185177086310574
   O              0.083644497048904       0.852806779399132       0.314094323775096
   O              0.018272295550205       0.915178501066618       0.148002812248558
   O              0.250592841215260       0.814051262743877       0.018192946668967
   O              0.148595889165576       0.685363368346435       0.249933837705548
   O              0.185379923666836       0.982490756964776       0.415810125262873
   O              0.315055021665099       0.750231035310477       0.518202580359028
   O              0.083847284202858       0.851837208911930       0.647847710289892
   O              0.019245361597429       0.916355510622851       0.481323599805282
   O              0.249512753408781       0.817339851079264       0.350780109859873
   O              0.148669576454952       0.685082739495168       0.583299353205383
   O              0.185636012131682       0.981060337308570       0.749674252693843
   O              0.315229741290968       0.749528799358532       0.851790195299003
   O              0.083718121176259       0.851287830524975       0.981245456403211
   O              0.019038481582416       0.916121584943541       0.814741393118224
   O              0.250576404114559       0.814280293637919       0.685277772401232
   O              0.148476965148925       0.684306637738590       0.917079658086297
   O              0.519562096442973       0.314873747962299       0.083278946337518
   O              0.648113309401338       0.083197231701616       0.185323966946886
   O              0.418301903783060       0.185127067865275       0.315731655496550
   O              0.355640862441640       0.249374687052042       0.149726316493973
   O              0.583873891777157       0.147670808169118       0.018325909531601
   O              0.480274009554159       0.019122627076503       0.250281200843059
   O              0.519212607610506       0.314567356552300       0.416960779793561
   O              0.648738565337766       0.082980308408889       0.518790966455150
   O              0.416912020310720       0.185048841528132       0.648737230654923
   O              0.352672523347660       0.249905619633399       0.481860686743344
   O              0.584322521018687       0.147886138517269       0.352108441536024
   O              0.482205850893757       0.018307700317496       0.583538218397216
   O              0.518598128593632       0.313994937719132       0.750710891065697
   O              0.648154351759302       0.082910951432307       0.852360513232427
   O              0.415560858568104       0.183887973414404       0.983854166348867
   O              0.351973157158569       0.248621178722734       0.816743217089264
   O              0.583877249756713       0.147741976416588       0.685320127087434
   O              0.482190180649218       0.018343548807358       0.916188274508671
   O              0.519422095702755       0.647722000564171       0.083304870269206
   O              0.649189235340617       0.416052877548177       0.185415480129551
   O              0.417399339938565       0.518442866645859       0.314859936049186
   O              0.352529035762366       0.583498128811475       0.148224802443156
   O              0.584055184803561       0.481299791951484       0.018657728349194
   O              0.482241187859145       0.351898682380421       0.250214250298579
   O              0.518865618472760       0.648243885384449       0.416605715424442
   O              0.648549832742162       0.416331143285715       0.518722718913033
   O              0.417102773116546       0.518130847567870       0.648392736849340
   O              0.352258100866581       0.583681495313174       0.481253422043190
   O              0.583976021953121       0.481136866329949       0.351952199675393
   O              0.481831690732521       0.351521298789710       0.583724414130500
   O              0.519082894660036       0.647727837225669       0.750055656080363
   O              0.648419173950766       0.416473039493338       0.851988265070469
   O              0.417148059605747       0.518582443251774       0.981471676925931
   O              0.352367607502155       0.582697223774815       0.815179636865127
   O              0.583829512873817       0.480939222937908       0.685366130297521
   O              0.481598602564873       0.351181100861084       0.917204419790614
   O              0.517065300926749       0.981745071322934       0.084540956473574
   O              0.648561701679521       0.749773629234771       0.185258180376968
   O              0.417299901726323       0.852370652736006       0.314290366908720
   O              0.351945867249493       0.917002653964444       0.147246292556935
   O              0.583699796878302       0.814811255807543       0.018650633785606
   O              0.481696943798155       0.685375319044210       0.250027781551733
   O              0.519407643925473       0.981158392157010       0.416629981739612
   O              0.648557547422788       0.749682571167138       0.518668804448870
   O              0.417282995592969       0.851611633776554       0.648082684464421
   O              0.352303942306252       0.916644881745957       0.481359774675555
   O              0.583606910609777       0.814867980385028       0.351952393025022
   O              0.481793852460857       0.684883865556842       0.583508136159925
   O              0.518915856291235       0.981126113428012       0.750187812356840
   O              0.648796950101700       0.749541729412102       0.852017736734357
   O              0.417155659911894       0.851667320705315       0.981303299056631
   O              0.352405886716267       0.916407442320186       0.814529386233812
   O              0.583906222664323       0.814438157740326       0.685376527689391
   O              0.481981728952180       0.685004815980118       0.916615382245745
   O              0.853460428605570       0.313795938725990       0.083136326155096
   O              0.979248392954191       0.083058244222173       0.183832306978261
   O              0.750649083479714       0.184972886221604       0.314998019158325
   O              0.686140058302950       0.249531896613668       0.148175833446331
   O              0.916060422391641       0.147645880390086       0.017825016061546
   O              0.814844125043645       0.017898017865324       0.250141228065454
   O              0.852433937414117       0.314298988240166       0.417005120392584
   O              0.982212453263444       0.083771085631306       0.517422578754232
   O              0.750425268060843       0.184902750053451       0.648260482368962
   O              0.686052304834503       0.249734585590749       0.481297739979345
   O              0.918033525396775       0.147973827019220       0.351161612541440
   O              0.815642991000182       0.018408893300620       0.583095579362110
   O              0.852174786099046       0.314458170296812       0.749950149050134
   O              0.981634902561793       0.082911773921539       0.851752634294616
   O              0.750042919504338       0.184855657820264       0.981428155075216
   O              0.685652593135894       0.249711315961432       0.814711219484036
   O              0.917385760499190       0.147711807136740       0.684887116456655
   O              0.815124120692300       0.018205686345147       0.916554369971247
   O              0.852685628364045       0.647423399816714       0.083348291161807
   O              0.982757485756401       0.415357205444965       0.185187973114280
   O              0.750750515561240       0.517945773326283       0.314689137383723
   O              0.685787487876631       0.582976399158154       0.148195473898548
   O              0.917008409930230       0.480919491508320       0.018830101287079
   O              0.816711523186682       0.351106995916191       0.249365514218357
   O              0.852443968208666       0.647665541111070       0.416839780415530
   O              0.981917726612097       0.416399773311943       0.518955160038756
   O              0.750466035788246       0.518308743234487       0.648122492679951
   O              0.685685923735074       0.583077510109237       0.481421793748434
   O              0.917527602971687       0.480776193439981       0.351860505227062
   O              0.815437192423834       0.351599033236277       0.583236402509967
   O              0.852644281862893       0.647786937932829       0.749995417917417
   O              0.982149631039584       0.416020774313466       0.852240342723122
   O              0.750803199702900       0.517983116786592       0.981489273099938
   O              0.685860725707654       0.583036051448869       0.814791151243239
   O              0.917086608654867       0.481168111502782       0.685448992363056
   O              0.814994556313395       0.351589776458717       0.916759573955999
   O              0.852087473857109       0.980855180938352       0.083310452537786
   O              0.981834861343149       0.749176735770067       0.185263017387827
   O              0.750449665026733       0.851375897663321       0.314791703345613
   O              0.685013552689919       0.916758843688622       0.148073725650844
   O              0.916930223016950       0.814269831719260       0.018668256608313
   O              0.815114369815050       0.684829278822637       0.250135919513682
   O              0.852703201230996       0.981295823320381       0.416402214601365
   O              0.982092710890681       0.749973658735066       0.518348609785645
   O              0.750572611836543       0.851683084431931       0.648146338032988
   O              0.685904341824507       0.916287370784342       0.481470808270825
   O              0.917243971232689       0.814216717611081       0.351973425314264
   O              0.815302121168584       0.685020926398007       0.583415670370321
   O              0.852370286545326       0.981180612727901       0.749966382872707
   O              0.982071293626408       0.749466021592734       0.851988481848469
   O              0.750349725823470       0.851606039667771       0.981567766857270
   O              0.685844391274000       0.916335009836219       0.814701755492890
   O              0.917335245188584       0.814440259839622       0.685208555153184
   O              0.815367287995942       0.684806378140600       0.916760555437081
   Al             0.047071464369238       0.046083060453753       0.046597928511707
   Al             0.223943742301775       0.218911651090507       0.222139798095484
   Al             0.287141611342087       0.286637551782662       0.287109975344766
   Al             0.112050760905118       0.111329478670388       0.111693857700230
   Al             0.049257792433766       0.047820687660239       0.383960935457693
   Al             0.216762324422289       0.215403194056127       0.550403049611681
   Al             0.284590817427981       0.284190051003095       0.617428390108932
   Al             0.117596790355017       0.116683548360411       0.451948545157754
   Al             0.049745527083193       0.048646012927134       0.716075757030750
   Al             0.216520333060233       0.216072541303689       0.881568996432537
   Al             0.284962506322359       0.284563867579206       0.950056654294410
   Al             0.117549403234030       0.117347048122735       0.783242898351864
   Al             0.048519091308891       0.383598832282604       0.048692395053342
   Al             0.216196851336308       0.549956196457137       0.216407207665925
   Al             0.284923857387334       0.617259618624601       0.284082360051134
   Al             0.117777398224867       0.450550624510188       0.117928601259438
   Al             0.049537419817351       0.383143957933756       0.383659570526244
   Al             0.216404236243057       0.549340252961178       0.549333930533894
   Al             0.284714532617209       0.617220256591239       0.617243641331418
   Al             0.117909591115602       0.450961757773311       0.451503825424953
   Al             0.049542288662246       0.382575024432796       0.716051281401113
   Al             0.216672971895553       0.549104027069997       0.882592985397289
   Al             0.284440216442940       0.617194986393405       0.950777606213220
   Al             0.117912032369356       0.450562449458664       0.783925638067178
   Al             0.049431924752256       0.715480048828786       0.049446462215226
   Al             0.217254032339415       0.881540012312592       0.216510080706543
   Al             0.287037130287780       0.955388403792200       0.280744229657490
   Al             0.118157900398057       0.782813926040451       0.117139489634548
   Al             0.049919383388392       0.715753243717539       0.382725123999953
   Al             0.216534849080694       0.882284700749592       0.549337194289698
   Al             0.284728008762526       0.950211266068858       0.617525498274149
   Al             0.118076357940265       0.783896962609604       0.450597886044062
   Al             0.049927065773541       0.715579761849771       0.715935374737639
   Al             0.216390169771664       0.881836030043604       0.882033669350399
   Al             0.284943211948564       0.949323375765902       0.949900064753293
   Al             0.118004010713497       0.783573688734366       0.784026947679055
   Al             0.384983816477217       0.047280103950219       0.047710281569004
   Al             0.550672859259971       0.216015167927721       0.215840261847047
   Al             0.617920642731853       0.283761949476365       0.284519726596266
   Al             0.452507274689155       0.117182730415393       0.116763864235746
   Al             0.384182223631435       0.048482924761170       0.383887923365459
   Al             0.549895129774564       0.215674567435665       0.549387661114159
   Al             0.617834907029034       0.283724538002650       0.617550628248264
   Al             0.451856667364770       0.117240418994176       0.451327734353031
   Al             0.383160417920471       0.048942289007627       0.715944603631502
   Al             0.550171410574159       0.215561494515539       0.882605349010413
   Al             0.617951645335075       0.284003281782875       0.950588683644434
   Al             0.451577666953134       0.116773288691759       0.783618423774167
   Al             0.384184519025333       0.383620465859100       0.048829924688765
   Al             0.549969282556938       0.548936474074249       0.216098848474314
   Al             0.617637950405055       0.617240050502929       0.284280675735676
   Al             0.451753369081988       0.451113216841840       0.117562789079976
   Al             0.383394625971356       0.382703403121862       0.382979892264528
   Al             0.549681264879360       0.549098742677824       0.549317496489577
   Al             0.617851005596779       0.617074989051012       0.617468845498668
   Al             0.451161435091201       0.450783922741302       0.450957022015071
   Al             0.383159260578044       0.382321003762492       0.716035452675290
   Al             0.549946704383207       0.549210545187458       0.882470821813809
   Al             0.618114120718116       0.617004649587484       0.950635685733172
   Al             0.451395882748761       0.450401847047953       0.784069395197812
   Al             0.383265018450497       0.715679526101502       0.049078937466321
   Al             0.550000576930336       0.882000625806466       0.216528046598199
   Al             0.618198278462553       0.950280822392174       0.284170065675417
   Al             0.451774203965403       0.783008301390209       0.117191928497858
   Al             0.382191956212609       0.717064045415351       0.382166689014493
   Al             0.549982297216838       0.882126522641704       0.549530968293548
   Al             0.618026803579507       0.950298303321551       0.617474776769147
   Al             0.451198433848067       0.783653127128208       0.451053914757041
   Al             0.383192197409501       0.715505644487732       0.716060213387447
   Al             0.550079627511978       0.881927319363086       0.882387873386340
   Al             0.618467571921958       0.949973147079078       0.950322273935552
   Al             0.451414032834764       0.783613938138839       0.783916620350474
   Al             0.716589072125525       0.048927707210154       0.048991673424442
   Al             0.882247648177154       0.215670763339984       0.216399326110416
   Al             0.949722010688806       0.284503480749847       0.285357713040688
   Al             0.783677678121192       0.116769152990164       0.117725405320995
   Al             0.716562061553823       0.048779808057576       0.382843950506209
   Al             0.882790233812878       0.215943544618539       0.549730663768869
   Al             0.951191748334136       0.283787649401891       0.617524402265394
   Al             0.784452132685311       0.117027241147211       0.450920177897987
   Al             0.716529279513921       0.048971248309477       0.715859263983071
   Al             0.882476546250524       0.215600140289050       0.882207534265764
   Al             0.950241861255132       0.284111392246977       0.949787177592647
   Al             0.784568061504519       0.117042778483922       0.784007239619309
   Al             0.716448279308779       0.382289575948572       0.049385684636628
   Al             0.883037464838992       0.549082450315805       0.216054011870769
   Al             0.951090779955316       0.616951175642283       0.284383299160042
   Al             0.784278058948987       0.450625420114595       0.117190380831420
   Al             0.716155605325130       0.382541040543770       0.382834748928100
   Al             0.882956275961947       0.549168879714841       0.549559810603035
   Al             0.951247166569414       0.617288212853883       0.617369749855133
   Al             0.784416641844069       0.450645084298387       0.450856914772143
   Al             0.716420285387020       0.382441312341748       0.715900177088957
   Al             0.883139862003130       0.549041477798292       0.882454213007942
   Al             0.951224617453293       0.617239533021550       0.950589223726457
   Al             0.784409873461014       0.450607294223179       0.783944303952033
   Al             0.716542162359786       0.715462134627116       0.049392542660014
   Al             0.882733564451573       0.881629994660019       0.215968334265585
   Al             0.950344324647126       0.949393480281476       0.284492393062260
   Al             0.784395689238937       0.783655534691694       0.117528223551318
   Al             0.716385841891428       0.715588360882624       0.382835933059085
   Al             0.883067948395335       0.882238933008412       0.549365494243733
   Al             0.951080276749077       0.950288327508892       0.617696105667471
   Al             0.784485770419418       0.783569691679681       0.450975487072345
   Al             0.716535345652668       0.715637444550519       0.715984065872727
   Al             0.883134804904555       0.882163343284695       0.882592025037823
   Al             0.951003894097278       0.950089631803156       0.950536062245161
   Al             0.784760385769287       0.783626225293713       0.783998484013855
%ENDBLOCK positions_frac

FIX_COM : true

%BLOCK species_q
   barn
   Li        0.3260000000E-01
%ENDBLOCK species_q

%BLOCK species_pot
   Li      1|1.0|14|16|18|10U:20(qc=7)
   O       2|1.1|17|20|23|20:21(qc=8)
   Al      3|2.2|2.2|1.4|4|5|5|30:31:32U2U2
%ENDBLOCK species_pot

SYMMETRY_TOL :     0.001000

%BLOCK symmetry_ops
# Symm. op. 1       E
          1.000000000000000       0.000000000000000       0.000000000000000
          0.000000000000000       1.000000000000000       0.000000000000000
          0.000000000000000       0.000000000000000       1.000000000000000
          0.000000000000000       0.000000000000000       0.000000000000000
%ENDBLOCK symmetry_ops

kpoint_mp_grid :    2   2   2

