
%block lattice_cart
ang
2.386181491890888 1.3776625266785072 4.337553666666718
-2.3861814918908886 1.3776625266785072 4.337553666666718
5.972328217563185e-17 -2.7553250533570144 4.337553666666718
%endblock lattice_cart

%block positions_frac
O 0.5561030344598709 -0.05610303445987086 0.25
O 0.9438969655401291 0.25 -0.44389696554012914
O 0.25 0.5561030344598709 -0.05610303445987086
O 1.0561030344598707 -0.24999999999999994 -0.556103034459871
O 0.75 -0.556103034459871 0.05610303445987086
O 0.4438969655401291 0.05610303445987086 -0.25
Al 0.14792207425287138 0.14792207425287138 0.14792207425287138
Al 0.6479220742528713 0.6479220742528713 -0.3520779257471286
Al 0.8520779257471286 -0.14792207425287138 -0.14792207425287138
Al 0.3520779257471286 0.3520779257471286 -0.6479220742528713
%endblock positions_frac
