# CELL file written 17:05:21 (GMT+1.0) 14th June 2022 from run geom

%BLOCK lattice_cart
   ANG
       7.15854900000000        4.13299600000000        13.0126620000000    
      -7.15854100000000        4.13298700000000        13.0126610000000    
     -0.400000000000000E-05   -8.26598000000000        13.0126600000000    
%ENDBLOCK lattice_cart

%BLOCK cell_constraints
      0   0   0
      0   0   0
%ENDBLOCK cell_constraints

%BLOCK positions_frac
   Li             0.156585741788239       0.175158414594796       0.168808317607749
   O              0.188505353064014       0.307521994490259       0.090116342939089
   O              0.089579838051352       0.188677632976887       0.308241554621545
   O              0.023615470557701       0.246619477409893       0.146253619318933
   O              0.249239946551968       0.142467163868792       0.031097618237469
   O              0.151676305302503       0.022955692962629       0.248125284903071
   O              0.185302784360491       0.315430291313919       0.418389756717755
   O              0.314889687223016       0.083761447491745       0.517430603398370
   O              0.084146197899685       0.185000416478648       0.647638990469660
   O              0.020308877234194       0.250921188046782       0.479103246022322
   O              0.249679257254703       0.150017998570550       0.350373146993575
   O              0.148955065512758       0.017996973226464       0.582786643232662
   O              0.186420328038300       0.314661381119677       0.749808851549599
   O              0.315231649673296       0.082514229223607       0.854002327671030
   O              0.085850781976508       0.182926900591421       0.979330032957859
   O              0.019505747758001       0.249628846447099       0.814634416509162
   O              0.250865556197148       0.147485883957986       0.685502440748605
   O              0.149270343817745       0.017484652081382       0.915507437648393
   O              0.185509511678962       0.647711240044784       0.083595920607712
   O              0.316559388587452       0.417675223154808       0.184530947705628
   O              0.082375269406725       0.520866229586581       0.316329309024103
   O              0.016258130493693       0.586610304276291       0.147837228600776
   O              0.250295809029702       0.480264009303750       0.019495007799280
   O              0.146054726821510       0.365295368685681       0.249182449419374
   O              0.185140636309884       0.646683867291800       0.417398051600085
   O              0.315682615845357       0.415588888263366       0.518808588291412
   O              0.083635478021973       0.517927000332623       0.648920077916604
   O              0.018472418763822       0.583251109479709       0.482432554095409
   O              0.250917784154839       0.480850426524843       0.351909528899225
   O              0.148828304247663       0.351537319748108       0.584023684015734
   O              0.185663618365492       0.647476186391061       0.750508736169900
   O              0.315194149902457       0.415057818412190       0.853750628363312
   O              0.084894574034614       0.516286087025096       0.982299588660959
   O              0.019346068715545       0.582246510967477       0.816167890720123
   O              0.250525997945278       0.479420109327639       0.687171118472055
   O              0.149761690568309       0.348479533683360       0.919701805185379
   O              0.185961320472290       0.978055476771369       0.083529290400646
   O              0.316824653934257       0.748858373348282       0.184771953148389
   O              0.083332440195273       0.852710206373269       0.314467357171797
   O              0.018902095725957       0.915501385089884       0.147989449911757
   O              0.251094421241243       0.814153429217937       0.018219623880177
   O              0.149015237929946       0.685808845951044       0.249679451107420
   O              0.187751929656186       0.981519516374768       0.413773708149212
   O              0.314866254516605       0.749215631273468       0.518090152375057
   O              0.084276646252708       0.851694831566475       0.647554926139739
   O              0.020835798228288       0.915162294439881       0.480932028438381
   O              0.250461788438663       0.807013903059963       0.353804141339689
   O              0.148726529341794       0.683335776287122       0.584453901539332
   O              0.186048799918503       0.981252477003974       0.749230248341539
   O              0.315352748234485       0.749717680416089       0.851531075399392
   O              0.084023388584336       0.851818650199911       0.980949581975826
   O              0.019547710524769       0.916330518117032       0.814377067409397
   O              0.250672768951647       0.814168781258621       0.685144383366361
   O              0.148272393477282       0.684384963951102       0.917387475009905
   O              0.518869196284426       0.313706062735597       0.083216622917500
   O              0.647550990628364       0.083328245580632       0.184731308228548
   O              0.418754287832793       0.184873499801972       0.314563620816472
   O              0.352108699390154       0.247480562417494       0.150103410740714
   O              0.589299136895737       0.148488164504760       0.014162191830012
   O              0.474198644062146       0.021798938022380       0.248740244977081
   O              0.519595753959165       0.313917460231649       0.416714121005280
   O              0.649163690555174       0.082588046301315       0.518302449209417
   O              0.417228371810270       0.184685369568796       0.648303244447353
   O              0.352771124769823       0.249511364257962       0.481193118740486
   O              0.584577094592218       0.147785505035461       0.351406409032613
   O              0.482111158834672       0.018196218576969       0.582526319163229
   O              0.518225807190930       0.313020930079936       0.751222620527861
   O              0.647474388389169       0.082955649444814       0.853079674666441
   O              0.412341005347527       0.179923549845016       0.992068210630817
   O              0.352500197726171       0.246382418881313       0.819229044200912
   O              0.584819805476110       0.147094911510789       0.684596282966997
   O              0.486072205421491       0.017527076112120       0.911259891349120
   O              0.519811547035484       0.647679851330932       0.083164246429514
   O              0.649505380623698       0.415738124527155       0.185302981975324
   O              0.417483099113580       0.517879914201258       0.315044362204028
   O              0.352547166548497       0.583314624961953       0.148188029257265
   O              0.584208710207227       0.481004207716116       0.018478764375682
   O              0.482322363822743       0.351609959533809       0.249737240661076
   O              0.519060211799458       0.647712134218684       0.416559283299560
   O              0.648514354589254       0.415996447920367       0.518887207350757
   O              0.416945618297761       0.517329707091939       0.649130531174959
   O              0.352665700491026       0.580099666979852       0.483577988945951
   O              0.583733400942405       0.480900007580390       0.352136596328340
   O              0.482033586221958       0.350198213598259       0.584375425361593
   O              0.518930147483853       0.647913496908300       0.749833394884941
   O              0.648491481709338       0.416923587231549       0.851571991818552
   O              0.417288971525462       0.518341364464726       0.981152632429871
   O              0.352290296326775       0.582490003672718       0.815396002540538
   O              0.583668528576831       0.480730780289633       0.685492573582584
   O              0.481508345933241       0.349645290909021       0.917623024889666
   O              0.509595159383082       0.985206035376648       0.087593416554080
   O              0.647272860927793       0.750738132678109       0.185238096487072
   O              0.414859268182165       0.852140729156981       0.315036773474518
   O              0.350640480155448       0.918913402430357       0.151047266958284
   O              0.583171479653876       0.816242366867697       0.018961523034987
   O              0.481699336795187       0.684713462034860       0.250440076686470
   O              0.518746706630475       0.981654281599248       0.415199706163048
   O              0.647835902273117       0.750197144619183       0.517988351613064
   O              0.417241163833387       0.851836936909868       0.647553811399102
   O              0.351786645513994       0.916895440181906       0.480742133264870
   O              0.581706679225655       0.816649165018081       0.351125010539442
   O              0.481251192672350       0.684707671167996       0.583670455136046
   O              0.519137900908900       0.980788032027870       0.749118312620179
   O              0.649134078903411       0.749120595305826       0.852031232010794
   O              0.417224624616151       0.852614574951331       0.982241655467322
   O              0.352883873418156       0.916251995995075       0.814382213078300
   O              0.584087297776355       0.814443478862201       0.684776229525902
   O              0.482136541875734       0.685221340321247       0.916403166388058
   O              0.854088777705602       0.313543323698882       0.083173078423725
   O              0.981463279301302       0.082071578173476       0.184806590604833
   O              0.751243878021906       0.184728126052577       0.314680875553391
   O              0.686326627947193       0.249652785200915       0.147757776699857
   O              0.917043097892854       0.147841516328863       0.018016007120543
   O              0.815204245849403       0.018285116658915       0.249663714071383
   O              0.852770855284191       0.314453585586209       0.416802215297065
   O              0.983960671524968       0.083788137270873       0.515880727298421
   O              0.750785902345259       0.184613790109800       0.648105062547693
   O              0.686536690456770       0.249469436710053       0.480880515229210
   O              0.919158300479222       0.148274260559836       0.350646948979212
   O              0.816947282515845       0.018289119476331       0.582255373054602
   O              0.852337861438802       0.314643695995426       0.749855862904219
   O              0.982225274602911       0.083275736845044       0.851427326252189
   O              0.751287127499302       0.185195404572482       0.981162324347525
   O              0.686405549954735       0.250400285825156       0.813282362755681
   O              0.918284787942127       0.147851065519527       0.683737061883711
   O              0.815975909214373       0.018867184784669       0.915620900102223
   O              0.851935111874608       0.648224338896704       0.083526334570275
   O              0.983020191649346       0.416396140701804       0.184940887786025
   O              0.750470163606812       0.517958074480735       0.314854446115233
   O              0.685595685775748       0.583106107788252       0.148312905632085
   O              0.916434565068807       0.481435869918251       0.019216953566692
   O              0.816803043925275       0.351224586362032       0.249355853694817
   O              0.851589436662946       0.648409645418924       0.417060929786465
   O              0.981525221538561       0.416652940945572       0.519616671157165
   O              0.750217737749579       0.518533799339068       0.647953324299809
   O              0.684773297557089       0.583548559734189       0.481415288540547
   O              0.916155350318508       0.482704528501657       0.351822812607110
   O              0.815917012451891       0.351787919836361       0.582665301560732
   O              0.852777921098311       0.647657758732482       0.750208926304232
   O              0.982912594116033       0.415562210928195       0.852884787485546
   O              0.750949841171594       0.517769747399597       0.981625784772974
   O              0.685808227564535       0.583069226797013       0.814798598708217
   O              0.916987884320483       0.481183652725553       0.685743975578692
   O              0.815643411833869       0.351623395240525       0.916536995437264
   O              0.852644851519997       0.981218622454494       0.082960746524347
   O              0.981720540900361       0.750385639885919       0.184920151091292
   O              0.750289986728871       0.851750508645571       0.314230017945979
   O              0.682473277446145       0.919011439184988       0.147557133704903
   O              0.916188410339544       0.815659748698016       0.018566843375505
   O              0.813402523424412       0.686410897447691       0.250273965542650
   O              0.853119968291779       0.981318066657583       0.416219673778624
   O              0.981503328701430       0.749822173213605       0.518582832525819
   O              0.750621449503328       0.851577764345788       0.648074725350783
   O              0.685768531875253       0.916452621656490       0.480776123423592
   O              0.917043755009238       0.814426728244716       0.351838912504865
   O              0.814984241232479       0.685099967965330       0.583481270908949
   O              0.852529447732260       0.981419422250563       0.749830201516539
   O              0.981973525594770       0.749781421398960       0.852113605159331
   O              0.749892337613472       0.852516392233772       0.982015741266604
   O              0.687143846839996       0.915728102222100       0.814157924481947
   O              0.917894140731572       0.814243429557107       0.684888291546303
   O              0.815137804929808       0.685127464452520       0.916954028252622
   Al             0.047560235658291       0.046034725964321       0.046274855257805
   Al             0.207907557378956       0.240867297901582       0.225525308895896
   Al             0.288985997363058       0.288724138332029       0.288924742311021
   Al             0.113705399865937       0.110289911981286       0.111880571691891
   Al             0.047502761728298       0.047542488853283       0.385915535485956
   Al             0.216542955187664       0.215441937131264       0.550700693893672
   Al             0.284745091768260       0.283805848501850       0.617110747968752
   Al             0.117283148820079       0.116780327159451       0.453043484377746
   Al             0.050212937657118       0.048809372630232       0.715848795184453
   Al             0.216901518830275       0.216692004446186       0.879594272679944
   Al             0.284848241544602       0.284148621572354       0.951315019415295
   Al             0.117894897584084       0.117303586464203       0.783223825605113
   Al             0.046847320218710       0.385065675592118       0.048540211657902
   Al             0.215560231228176       0.550677691638654       0.216322891669950
   Al             0.285041071819931       0.615840414384740       0.284758676209658
   Al             0.113914790391557       0.459268735921946       0.114912612716664
   Al             0.046306008321278       0.386817064553572       0.385881450420353
   Al             0.216504215253180       0.547362155137345       0.550240882166392
   Al             0.283981370155646       0.615757509932911       0.618974156225022
   Al             0.117780561584651       0.451697990944455       0.452120430047511
   Al             0.049479314188376       0.382678358210074       0.716056410024934
   Al             0.217466515365272       0.549355880073002       0.881843679979101
   Al             0.284322082022534       0.617898017627137       0.950668705386117
   Al             0.117552755864420       0.450375660107875       0.784665472289086
   Al             0.048822607617282       0.717709178214410       0.048804334060649
   Al             0.215742265528558       0.877627285470268       0.214785477547626
   Al             0.280007019035003       0.929321127138071       0.298007842617980
   Al             0.118331606832463       0.783179121714653       0.116951891430022
   Al             0.049181747610825       0.714806854403472       0.382815187969178
   Al             0.217040344247658       0.881075813569853       0.550972013227142
   Al             0.285069363085428       0.950258364538508       0.617455489340002
   Al             0.115563871090806       0.780246425648088       0.453837685411143
   Al             0.049917432931597       0.715088756478380       0.716441749474431
   Al             0.216776797722446       0.881847059695486       0.881577030091294
   Al             0.285745210372337       0.948961494557698       0.948847495905156
   Al             0.117881323613438       0.783531372000839       0.784458727318554
   Al             0.390765931071002       0.043302272918042       0.037807697570015
   Al             0.551689614240543       0.216132754162850       0.215223659473557
   Al             0.618434831575961       0.283575088903211       0.284169208953393
   Al             0.463487758575047       0.121174841740369       0.110878524389022
   Al             0.383184259759539       0.049033667711118       0.383612054860833
   Al             0.550802639428579       0.215039941033466       0.548623910372780
   Al             0.618141788088264       0.283231931638472       0.617194497657589
   Al             0.452268026039891       0.117160383477753       0.450658946932418
   Al             0.383773306096028       0.048288714053404       0.714861854925414
   Al             0.552239988372463       0.216623281130484       0.880086559335788
   Al             0.619994651608283       0.284897779979205       0.949234054425777
   Al             0.452549987738960       0.117050546886213       0.780394120154277
   Al             0.384040041761466       0.384314199856192       0.047985546295878
   Al             0.550126651793834       0.547995489773444       0.216316912193300
   Al             0.618619180712488       0.616765036949598       0.283512146781976
   Al             0.452077821833883       0.451420475920335       0.117048584153175
   Al             0.383767237803996       0.382108105152993       0.382734083626516
   Al             0.549688252925939       0.548436417339211       0.550034078296706
   Al             0.617681818567604       0.617308718573446       0.617402968346139
   Al             0.451800815166171       0.448574786639413       0.451488465060565
   Al             0.383321245070472       0.381344821580883       0.716586127795159
   Al             0.550055396339589       0.549546564078859       0.882022873306178
   Al             0.618565981922892       0.616581452915432       0.950424981280176
   Al             0.451346023825998       0.450543658749072       0.783999524469685
   Al             0.383821769551508       0.714929445572302       0.048715229225768
   Al             0.548027889776154       0.882099175682931       0.217249032175380
   Al             0.619122850488828       0.950032251214949       0.283822818874221
   Al             0.453080272719268       0.781582433349454       0.117234895435504
   Al             0.386270257326775       0.708092357437022       0.385988353545662
   Al             0.549790777991916       0.882282500238123       0.548837277940427
   Al             0.618556216081607       0.949758895154595       0.616625857051015
   Al             0.450617312708061       0.783256305553836       0.452104287616090
   Al             0.383250024932701       0.715388654247662       0.716173008791840
   Al             0.551418762589454       0.881067554326819       0.880545437213807
   Al             0.620841469518411       0.949050639257282       0.948645216394553
   Al             0.451897228403789       0.783522967739199       0.783391098282124
   Al             0.720112167140152       0.048399325283549       0.048127370649630
   Al             0.882334367110585       0.215549926834378       0.216084893348360
   Al             0.947549409591003       0.286484763548897       0.285182761219575
   Al             0.784589047518871       0.117407214670788       0.117220375853299
   Al             0.716575528864625       0.048732647053068       0.382629958995970
   Al             0.882748280871755       0.216628621588468       0.549473300790598
   Al             0.951205162298383       0.283742892571569       0.618014514732572
   Al             0.784715152486193       0.116873042759444       0.450533179009147
   Al             0.717398962460400       0.048747217032639       0.714974929933114
   Al             0.883390261843841       0.216161397554511       0.881628562352611
   Al             0.950927226469721       0.283985657540736       0.949935176571720
   Al             0.785620817907776       0.117299116996401       0.783148733999677
   Al             0.716872583672227       0.382344127286263       0.048885902278520
   Al             0.881224906041291       0.550790768669080       0.216788578257154
   Al             0.949963554019573       0.619092369587724       0.284408823472978
   Al             0.783937712162318       0.450735333385757       0.117201579949883
   Al             0.715549821024486       0.382639819609901       0.383185864336642
   Al             0.882257012121641       0.549726124998770       0.549825601638499
   Al             0.950892823571457       0.616813240889510       0.618011802665497
   Al             0.783878231111604       0.451223219113469       0.451010538727279
   Al             0.716907680782347       0.383149560296647       0.714935229784160
   Al             0.883035395353402       0.548944258612403       0.882593597299101
   Al             0.950340862807728       0.618203040666435       0.950550976540685
   Al             0.784570021316486       0.450764735958789       0.783959179569520
   Al             0.716596444572639       0.715345639805591       0.049593335589672
   Al             0.882718866893451       0.882006230032201       0.215959279379229
   Al             0.949911209201608       0.949367090195534       0.284668424321831
   Al             0.783549063944336       0.784890995178672       0.117553728626326
   Al             0.715284999332064       0.716113581778989       0.383125078633158
   Al             0.882511850951367       0.882312382725744       0.549521391956779
   Al             0.951380683888534       0.949420720389666       0.618253523515136
   Al             0.784249711869090       0.783535906666504       0.451028859921957
   Al             0.716461435305456       0.715543189447003       0.715812182677057
   Al             0.883527912718365       0.882601010353988       0.882508292583788
   Al             0.951887133252403       0.950699003245170       0.949630267003598
   Al             0.785579481507066       0.783031897218993       0.783627935215229
%ENDBLOCK positions_frac

FIX_COM : true

%BLOCK species_q
   barn
   Li        0.3260000000E-01
%ENDBLOCK species_q

%BLOCK species_pot
   Li      1|1.0|14|16|18|10U:20(qc=7)
   O       2|1.1|17|20|23|20:21(qc=8)
   Al      3|2.2|2.2|1.4|4|5|5|30:31:32U2U2
%ENDBLOCK species_pot

SYMMETRY_TOL :     0.001000

%BLOCK symmetry_ops
# Symm. op. 1       E
          1.000000000000000       0.000000000000000       0.000000000000000
          0.000000000000000       1.000000000000000       0.000000000000000
          0.000000000000000       0.000000000000000       1.000000000000000
          0.000000000000000       0.000000000000000       0.000000000000000
%ENDBLOCK symmetry_ops

kpoint_mp_grid :    2   2   2

