# CELL file written 13:25:35 (GMT+1.0) 10th November 2021 from run al2o3_xc-LDA_c-0600_k-8x8x8_geom

%BLOCK lattice_cart
   ANG
       2.37591343666001        1.37173409976460        4.32104885065038    
      -2.37591315136910        1.37173421393852        4.32104865757403    
      0.241522974261416E-06   -2.74346824703531        4.32104841609777    
%ENDBLOCK lattice_cart

%BLOCK positions_frac
   O              0.556106451058688       0.943893707823530       0.249999848056809
   O              0.943893767606950       0.250000072812866       0.556106161850972
   O              0.250000064976441       0.556106378389108       0.943893551149903
   O              0.056106348754302       0.750000045587336       0.443893635474970
   O              0.750000068891312       0.443893734578765       0.056106198857512
   O              0.443893672855867       0.056106393275537       0.749999891267039
   Al             0.147991324715067       0.147991390377620       0.147991193995448
   Al             0.647991373260794       0.647991364096191       0.647991195389689
   Al             0.852008779229704       0.852008752421066       0.852008546686755
   Al             0.352008755085779       0.352008767072885       0.352008564401092
%ENDBLOCK positions_frac

FIX_COM : true

%BLOCK species_pot
   O       2|1.1|17|20|23|20:21(qc=8)
   Al      3|2.2|2.2|1.4|4|5|5|30:31:32U2U2
%ENDBLOCK species_pot

SYMMETRY_TOL :     0.001000

%BLOCK symmetry_ops
# Symm. op. 1       E
          1.000000000000000       0.000000000000000       0.000000000000000
          0.000000000000000       1.000000000000000       0.000000000000000
          0.000000000000000       0.000000000000000       1.000000000000000
          0.000000000000000       0.000000000000000       0.000000000000000
%ENDBLOCK symmetry_ops

kpoint_mp_grid :    8   8   8

