# CELL file written 12:58:01 (GMT+1.0) 8th November 2021 from run al2o3_xc-PBESOL_c-1000_k-5x5x5_geom

%BLOCK lattice_cart
   ANG
       2.38599292696230        1.37755645540580        4.33586478877918    
      -2.38599443381093        1.37755142825883        4.33586721013417    
     -0.510706028328197E-05   -2.75510861768556        4.33586591409138    
%ENDBLOCK lattice_cart

%BLOCK positions_frac
   O              0.555964080380664       0.944024931315619       0.250003314645060
   O              0.944034145418298       0.249987302500254       0.555967413011923
   O              0.249995413050482       0.555980110979547       0.944013023920051
   O              0.055996492281001       0.750004394638371       0.444012287296954
   O              0.750007552515744       0.443998196703483       0.056002560696393
   O              0.444001553840891       0.056005725412057       0.749999485593207
   Al             0.147895652279340       0.147895720539165       0.147896264488383
   Al             0.647895061517863       0.647895204896809       0.647894652965325
   Al             0.852105708543266       0.852104803425820       0.852104477508080
   Al             0.352104946607360       0.352104216023780       0.352105307004815
%ENDBLOCK positions_frac

FIX_COM : true

%BLOCK species_pot
   O       2|1.1|17|20|23|20:21(qc=8)
   Al      3|2.2|2.2|1.4|4|5|5|30:31:32U2U2
%ENDBLOCK species_pot

SYMMETRY_TOL :     0.001000

%BLOCK symmetry_ops
# Symm. op. 1       E
          1.000000000000000       0.000000000000000       0.000000000000000
          0.000000000000000       1.000000000000000       0.000000000000000
          0.000000000000000       0.000000000000000       1.000000000000000
          0.000000000000000       0.000000000000000       0.000000000000000
%ENDBLOCK symmetry_ops

kpoint_mp_grid :    5   5   5

