# CELL file written 14:35:27 (GMT+1.0) 10th November 2021 from run al2o3_xc-PBESOL_c-0600_k-8x8x8_geom

%BLOCK lattice_cart
   ANG
       2.39737104092376        1.38412243658981        4.36171392994619    
      -2.39737080991242        1.38412253114865        4.36171377316785    
      0.197396032652022E-06   -2.76824584695634        4.36171381089518    
%ENDBLOCK lattice_cart

%BLOCK positions_frac
   O              0.556376653392022       0.943623419552426       0.249999907266611
   O              0.943623613585823       0.250000046884274       0.556376377642668
   O              0.250000087784962       0.556376572494884       0.943623331959270
   O              0.056376529018208       0.750000070972748       0.443623376652873
   O              0.750000022424614       0.443623533753740       0.056376463321643
   O              0.443623472792408       0.056376703466596       0.749999824561934
   Al             0.147908132434056       0.147908161861009       0.147908050130035
   Al             0.647908204045584       0.647908157697908       0.647907984518175
   Al             0.852091990612660       0.852091979492609       0.852091685461204
   Al             0.352091900344568       0.352091960258710       0.352091785615776
%ENDBLOCK positions_frac

FIX_COM : true

%BLOCK species_pot
   O       2|1.1|17|20|23|20:21(qc=8)
   Al      3|2.2|2.2|1.4|4|5|5|30:31:32U2U2
%ENDBLOCK species_pot

SYMMETRY_TOL :     0.001000

%BLOCK symmetry_ops
# Symm. op. 1       E
          1.000000000000000       0.000000000000000       0.000000000000000
          0.000000000000000       1.000000000000000       0.000000000000000
          0.000000000000000       0.000000000000000       1.000000000000000
          0.000000000000000       0.000000000000000       0.000000000000000
%ENDBLOCK symmetry_ops

kpoint_mp_grid :    8   8   8

