# CELL file written 00:44:28 (GMT+1.0) 6th November 2021 from run al2o3_xc-LDA_c-0800_k-5x5x5_geom

%BLOCK lattice_cart
   ANG
       2.36545906978278        1.36569865041070        4.29748280228663    
      -2.36545910437588        1.36569851985826        4.29748286219916    
     -0.130358236339494E-06   -2.73139696124652        4.29748245176781    
%ENDBLOCK lattice_cart

%BLOCK positions_frac
   O              0.555810343565613       0.944189131098816       0.250000025739184
   O              0.944189094851641       0.250000212555943       0.555810181918204
   O              0.250000352953854       0.555810398377936       0.944188832474251
   O              0.055811043794705       0.749999833236561       0.444189606442605
   O              0.749999752350243       0.444189698247584       0.055810978405345
   O              0.444189767934065       0.055811090184573       0.749999704057899
   Al             0.147990947831872       0.147990961784555       0.147990774224715
   Al             0.647990059932491       0.647990067439910       0.647989838709367
   Al             0.852009174313023       0.852009161456373       0.852008962865158
   Al             0.352010068907398       0.352010052052653       0.352009882293462
%ENDBLOCK positions_frac

FIX_COM : true

%BLOCK species_pot
   O       2|1.1|17|20|23|20:21(qc=8)
   Al      3|2.2|2.2|1.4|4|5|5|30:31:32U2U2
%ENDBLOCK species_pot

SYMMETRY_TOL :     0.001000

%BLOCK symmetry_ops
# Symm. op. 1       E
          1.000000000000000       0.000000000000000       0.000000000000000
          0.000000000000000       1.000000000000000       0.000000000000000
          0.000000000000000       0.000000000000000       1.000000000000000
          0.000000000000000       0.000000000000000       0.000000000000000
%ENDBLOCK symmetry_ops

kpoint_mp_grid :    5   5   5

