# CELL file written 01:07:15 (GMT+1.0) 6th November 2021 from run al2o3_xc-PBESOL_c-0400_k-5x5x5_geom

%BLOCK lattice_cart
   ANG
       2.52989600726350        1.46063591256911        4.59392337982606    
      -2.52989595182415        1.46063592873098        4.59392334418149    
      0.417162537218700E-07   -2.92127243029865        4.59392321165880    
%ENDBLOCK lattice_cart

%BLOCK positions_frac
   O              0.559354566572176       0.940645523804056       0.249999890388247
   O              0.940645635964135       0.250000060658984       0.559354312169726
   O              0.250000091328789       0.559354536836144       0.940645363841855
   O              0.059354448558839       0.750000061180803       0.440645483191359
   O              0.750000030289801       0.440645619770392       0.059354356783190
   O              0.440645593335096       0.059354558749194       0.749999866524147
   Al             0.147929348429756       0.147929372165865       0.147929203530788
   Al             0.647929379847150       0.647929378732437       0.647929178446483
   Al             0.852070769655971       0.852070746952497       0.852070553544750
   Al             0.352070742453192       0.352070747584533       0.352070578709643
%ENDBLOCK positions_frac

FIX_COM : true

%BLOCK species_pot
   O       2|1.1|17|20|23|20:21(qc=8)
   Al      3|2.2|2.2|1.4|4|5|5|30:31:32U2U2
%ENDBLOCK species_pot

SYMMETRY_TOL :     0.001000

%BLOCK symmetry_ops
# Symm. op. 1       E
          1.000000000000000       0.000000000000000       0.000000000000000
          0.000000000000000       1.000000000000000       0.000000000000000
          0.000000000000000       0.000000000000000       1.000000000000000
          0.000000000000000       0.000000000000000       0.000000000000000
%ENDBLOCK symmetry_ops

kpoint_mp_grid :    5   5   5

