# CELL file written 12:57:03 (GMT+1.0) 10th November 2021 from run al2o3_xc-LDA_c-0600_k-5x5x5_geom

%BLOCK lattice_cart
   ANG
       2.37643695067781        1.37203647967958        4.32196947938958    
      -2.37643682650135        1.37203631147197        4.32196946447322    
     -0.835838164696643E-07   -2.74407308554452        4.32196924853581    
%ENDBLOCK lattice_cart

%BLOCK positions_frac
   O              0.556081172350766       0.943918989077560       0.249999869690437
   O              0.943919058368852       0.250000052097666       0.556080889927124
   O              0.250000069772991       0.556081108783091       0.943918752330416
   O              0.056081088337821       0.750000053091032       0.443918873214176
   O              0.750000050998756       0.443918980500623       0.056081008899558
   O              0.443918936629107       0.056081174087715       0.749999886843311
   Al             0.147998655946636       0.147998683294971       0.147998507056900
   Al             0.647998688528534       0.647998681157008       0.647998491474217
   Al             0.852001458433871       0.852001439138858       0.852001240852045
   Al             0.352001427067571       0.352001445206380       0.352001266842005
%ENDBLOCK positions_frac

FIX_COM : true

%BLOCK species_pot
   O       2|1.1|17|20|23|20:21(qc=8)
   Al      3|2.2|2.2|1.4|4|5|5|30:31:32U2U2
%ENDBLOCK species_pot

SYMMETRY_TOL :     0.001000

%BLOCK symmetry_ops
# Symm. op. 1       E
          1.000000000000000       0.000000000000000       0.000000000000000
          0.000000000000000       1.000000000000000       0.000000000000000
          0.000000000000000       0.000000000000000       1.000000000000000
          0.000000000000000       0.000000000000000       0.000000000000000
%ENDBLOCK symmetry_ops

kpoint_mp_grid :    5   5   5

