# CELL file written 01:03:35 (GMT+1.0) 6th November 2021 from run al2o3_xc-PBESOL_c-0300_k-5x5x5_geom

%BLOCK lattice_cart
   ANG
       2.51135638477604        1.44993239697222        4.46992328092418    
      -2.51135669965109        1.44993229409059        4.46992348298723    
     -0.246535609064593E-06   -2.89986515731031        4.46992319446161    
%ENDBLOCK lattice_cart

%BLOCK positions_frac
   O              0.539803137400352       0.960177980771281       0.249980356805819
   O              0.960178004845409       0.249980550483121       0.539802883184837
   O              0.249980583882164       0.539803078044607       0.960177777002803
   O              0.039822116036401       0.750019570299821       0.460196869237029
   O              0.750019537549270       0.460197041298100       0.039821985147301
   O              0.460196983270461       0.039822143580318       0.750019400418638
   Al             0.143950782312290       0.143950759617686       0.143950608985109
   Al             0.643930672513639       0.643930649537288       0.643930482232747
   Al             0.856049339944323       0.856049360229346       0.856049148380983
   Al             0.356069448680598       0.356069472573337       0.356069275734923
%ENDBLOCK positions_frac

FIX_COM : true

%BLOCK species_pot
   O       2|1.1|17|20|23|20:21(qc=8)
   Al      3|2.2|2.2|1.4|4|5|5|30:31:32U2U2
%ENDBLOCK species_pot

SYMMETRY_TOL :     0.001000

%BLOCK symmetry_ops
# Symm. op. 1       E
          1.000000000000000       0.000000000000000       0.000000000000000
          0.000000000000000       1.000000000000000       0.000000000000000
          0.000000000000000       0.000000000000000       1.000000000000000
          0.000000000000000       0.000000000000000       0.000000000000000
%ENDBLOCK symmetry_ops

kpoint_mp_grid :    5   5   5

