# CELL file written 12:46:05 (GMT+1.0) 10th November 2021 from run al2o3_xc-LDA_c-0600_k-1x1x1_geom

%BLOCK lattice_cart
   ANG
       2.36927869566712        1.36791429855546        4.33962018587429    
      -2.36927842189062        1.36790880595289        4.33962174945720    
     -0.461982233575356E-05   -2.73578960438212        4.33961003472898    
%ENDBLOCK lattice_cart

%BLOCK positions_frac
   O              0.561373103815243       0.938626979421533       0.249999018321052
   O              0.938627026738031       0.249999751286790       0.561371489856665
   O              0.249999617799618       0.561372982044132       0.938627820304767
   O              0.061373236656414       0.750000290683462       0.438628154461638
   O              0.750000089854750       0.438627579459515       0.061372192153172
   O              0.438627610886840       0.061372858960459       0.750000530861238
   Al             0.147925264034582       0.147925392957350       0.147925394473680
   Al             0.647925223033812       0.647925386952248       0.647925608119380
   Al             0.852074680669545       0.852074635344533       0.852074541142131
   Al             0.352074752946072       0.352074749324883       0.352074037436466
%ENDBLOCK positions_frac

FIX_COM : true

%BLOCK species_pot
   O       2|1.1|17|20|23|20:21(qc=8)
   Al      3|2.2|2.2|1.4|4|5|5|30:31:32U2U2
%ENDBLOCK species_pot

SYMMETRY_TOL :     0.001000

%BLOCK symmetry_ops
# Symm. op. 1       E
          1.000000000000000       0.000000000000000       0.000000000000000
          0.000000000000000       1.000000000000000       0.000000000000000
          0.000000000000000       0.000000000000000       1.000000000000000
          0.000000000000000       0.000000000000000       0.000000000000000
%ENDBLOCK symmetry_ops

kpoint_mp_grid :    1   1   1

