# CELL file written 00:32:13 (GMT+1.0) 6th November 2021 from run al2o3_xc-LDA_c-0700_k-5x5x5_geom

%BLOCK lattice_cart
   ANG
       2.36727021012288        1.36674395789558        4.30134324285630    
      -2.36726989750364        1.36674386612853        4.30134309927912    
      0.768369522225557E-07   -2.73348799513369        4.30134291058520    
%ENDBLOCK lattice_cart

%BLOCK positions_frac
   O              0.555801669213531       0.944198360989650       0.249999955924697
   O              0.944198423121497       0.250000063387220       0.555801545113284
   O              0.250000023334704       0.555801771692740       0.944198187076193
   O              0.055801722940438       0.750000105220359       0.444198125872913
   O              0.750000114639724       0.444198289769242       0.055801593511182
   O              0.444198408538548       0.055801765837821       0.749999880172854
   Al             0.147994622580858       0.147994633461011       0.147994448341069
   Al             0.647994623368707       0.647994629578142       0.647994446878143
   Al             0.852005500279184       0.852005497440845       0.852005300781380
   Al             0.352005498417714       0.352005489057874       0.352005303458474
%ENDBLOCK positions_frac

FIX_COM : true

%BLOCK species_pot
   O       2|1.1|17|20|23|20:21(qc=8)
   Al      3|2.2|2.2|1.4|4|5|5|30:31:32U2U2
%ENDBLOCK species_pot

SYMMETRY_TOL :     0.001000

%BLOCK symmetry_ops
# Symm. op. 1       E
          1.000000000000000       0.000000000000000       0.000000000000000
          0.000000000000000       1.000000000000000       0.000000000000000
          0.000000000000000       0.000000000000000       1.000000000000000
          0.000000000000000       0.000000000000000       0.000000000000000
%ENDBLOCK symmetry_ops

kpoint_mp_grid :    5   5   5

