# CELL file written 01:26:05 (GMT+1.0) 6th November 2021 from run al2o3_xc-PBESOL_c-0700_k-5x5x5_geom

%BLOCK lattice_cart
   ANG
       2.38904308130604        1.37931429940555        4.34089701899009    
      -2.38904371015449        1.37931419880960        4.34089739632108    
     -0.401542900608322E-06   -2.75862948604062        4.34089720220989    
%ENDBLOCK lattice_cart

%BLOCK positions_frac
   O              0.555806688150922       0.944193279098760       0.249999856127063
   O              0.944193511236364       0.250000011153326       0.555806500622899
   O              0.250000053094637       0.555806333291299       0.944193530520886
   O              0.055806477916166       0.750000146674848       0.444193262555723
   O              0.750000041505906       0.444193949211384       0.055806124194410
   O              0.444193553516512       0.055806725119900       0.749999883013001
   Al             0.147927984026469       0.147927946614278       0.147927822616889
   Al             0.647928034642256       0.647927934156474       0.647927798302838
   Al             0.852072156253394       0.852072118043598       0.852072005758159
   Al             0.352072106092280       0.352072163071037       0.352072003418320
%ENDBLOCK positions_frac

FIX_COM : true

%BLOCK species_pot
   O       2|1.1|17|20|23|20:21(qc=8)
   Al      3|2.2|2.2|1.4|4|5|5|30:31:32U2U2
%ENDBLOCK species_pot

SYMMETRY_TOL :     0.001000

%BLOCK symmetry_ops
# Symm. op. 1       E
          1.000000000000000       0.000000000000000       0.000000000000000
          0.000000000000000       1.000000000000000       0.000000000000000
          0.000000000000000       0.000000000000000       1.000000000000000
          0.000000000000000       0.000000000000000       0.000000000000000
%ENDBLOCK symmetry_ops

kpoint_mp_grid :    5   5   5

