# CELL file written 13:15:37 (GMT+1.0) 10th November 2021 from run al2o3_xc-LDA_c-0600_k-7x7x7_geom

%BLOCK lattice_cart
   ANG
       2.37598939592242        1.37177813847522        4.32254569313203    
      -2.37598919547726        1.37177767680515        4.32254572946472    
     -0.299595395719687E-06   -2.74355627658321        4.32254554097874    
%ENDBLOCK lattice_cart

%BLOCK positions_frac
   O              0.556001181380730       0.943998890235082       0.249999848572188
   O              0.943999060287064       0.249999984500693       0.556001036443161
   O              0.250000020208414       0.556001181132641       0.943998766792612
   O              0.056001083817038       0.750000172881824       0.443998662320673
   O              0.750000057634973       0.443998899093307       0.056001068336303
   O              0.443998911449970       0.056001219687143       0.749999949762974
   Al             0.148038903488808       0.148038940783153       0.148038713487359
   Al             0.648038937245429       0.648038913059601       0.648038718459787
   Al             0.851961239301722       0.851961192454388       0.851961025904283
   Al             0.351961211620759       0.351961212607072       0.351960997050849
%ENDBLOCK positions_frac

FIX_COM : true

%BLOCK species_pot
   O       2|1.1|17|20|23|20:21(qc=8)
   Al      3|2.2|2.2|1.4|4|5|5|30:31:32U2U2
%ENDBLOCK species_pot

SYMMETRY_TOL :     0.001000

%BLOCK symmetry_ops
# Symm. op. 1       E
          1.000000000000000       0.000000000000000       0.000000000000000
          0.000000000000000       1.000000000000000       0.000000000000000
          0.000000000000000       0.000000000000000       1.000000000000000
          0.000000000000000       0.000000000000000       0.000000000000000
%ENDBLOCK symmetry_ops

kpoint_mp_grid :    7   7   7

