# CELL file written 00:08:54 (GMT+1.0) 6th November 2021 from run al2o3_xc-LDA_c-0300_k-5x5x5_geom

%BLOCK lattice_cart
   ANG
       2.48907502916870        1.43706866407973        4.42203913741187    
      -2.48907476398457        1.43706873327743        4.42203897012951    
      0.192519019178634E-06   -2.87413682499263        4.42203854338859    
%ENDBLOCK lattice_cart

%BLOCK positions_frac
   O              0.540291170650776       0.959662937915864       0.249997265029582
   O              0.959663102582285       0.249997379973227       0.540291012852380
   O              0.249997469813583       0.540291060805482       0.959662853743652
   O              0.040337027070292       0.750002744336388       0.459708751743029
   O              0.750002649720436       0.459709060980481       0.040336901059120
   O              0.459708944091454       0.040337178522896       0.750002491428933
   Al             0.143820183756597       0.143820202244151       0.143820064503229
   Al             0.643825204618762       0.643825228798670       0.643825093885205
   Al             0.856179935411789       0.856179921384405       0.856179692783055
   Al             0.356174918718932       0.356174891473341       0.356174660102004
%ENDBLOCK positions_frac

FIX_COM : true

%BLOCK species_pot
   O       2|1.1|17|20|23|20:21(qc=8)
   Al      3|2.2|2.2|1.4|4|5|5|30:31:32U2U2
%ENDBLOCK species_pot

SYMMETRY_TOL :     0.001000

%BLOCK symmetry_ops
# Symm. op. 1       E
          1.000000000000000       0.000000000000000       0.000000000000000
          0.000000000000000       1.000000000000000       0.000000000000000
          0.000000000000000       0.000000000000000       1.000000000000000
          0.000000000000000       0.000000000000000       0.000000000000000
%ENDBLOCK symmetry_ops

kpoint_mp_grid :    5   5   5

