# CELL file written 00:22:22 (GMT+1.0) 6th November 2021 from run al2o3_xc-LDA_c-0500_k-5x5x5_geom

%BLOCK lattice_cart
   ANG
       2.41408822293804        1.39377427871327        4.36400940355113    
      -2.41408816568574        1.39377427515057        4.36400937281299    
      0.255407172554659E-07   -2.78754906894466        4.36400922927037    
%ENDBLOCK lattice_cart

%BLOCK positions_frac
   O              0.552087687238491       0.947912378390753       0.249999925438432
   O              0.947912395621487       0.250000017428809       0.552087649750959
   O              0.250000064186940       0.552087688384816       0.947912210213811
   O              0.052087980234567       0.750000093897081       0.447911888670216
   O              0.750000096307114       0.447912095879657       0.052087850654575
   O              0.447912069716916       0.052088121555834       0.749999798394175
   Al             0.147598852374228       0.147598826645591       0.147598664913066
   Al             0.647598834926674       0.647598787605209       0.647598598777604
   Al             0.852401351601410       0.852401322043758       0.852401111741463
   Al             0.352401274227080       0.352401274603398       0.352401088575887
%ENDBLOCK positions_frac

FIX_COM : true

%BLOCK species_pot
   O       2|1.1|17|20|23|20:21(qc=8)
   Al      3|2.2|2.2|1.4|4|5|5|30:31:32U2U2
%ENDBLOCK species_pot

SYMMETRY_TOL :     0.001000

%BLOCK symmetry_ops
# Symm. op. 1       E
          1.000000000000000       0.000000000000000       0.000000000000000
          0.000000000000000       1.000000000000000       0.000000000000000
          0.000000000000000       0.000000000000000       1.000000000000000
          0.000000000000000       0.000000000000000       0.000000000000000
%ENDBLOCK symmetry_ops

kpoint_mp_grid :    5   5   5

