# CELL file written 13:34:04 (GMT+1.0) 8th November 2021 from run al2o3_xc-PBESOL_c-1200_k-5x5x5_geom

%BLOCK lattice_cart
   ANG
       2.38616985979931        1.37765623149272        4.33736405898093    
      -2.38617101295183        1.37765503742327        4.33736507107646    
     -0.161067048938287E-05   -2.75531302857447        4.33736480371522    
%ENDBLOCK lattice_cart

%BLOCK positions_frac
   O              0.555641879844404       0.944358118233503       0.249999714300535
   O              0.944357952150857       0.250000098723028       0.555642093305978
   O              0.250000059811877       0.555642008281564       0.944358034465119
   O              0.055642141522748       0.750000009643812       0.444357698724143
   O              0.750000242031786       0.444358164554733       0.055641631894669
   O              0.444358173793098       0.055641997630023       0.749999978722394
   Al             0.147894321360261       0.147894319089357       0.147894186472011
   Al             0.647894339727476       0.647894284338404       0.647894198205350
   Al             0.852105755086133       0.852105814923209       0.852105627941718
   Al             0.352105741106265       0.352105791017271       0.352105623098273
%ENDBLOCK positions_frac

FIX_COM : true

%BLOCK species_pot
   O       2|1.1|17|20|23|20:21(qc=8)
   Al      3|2.2|2.2|1.4|4|5|5|30:31:32U2U2
%ENDBLOCK species_pot

SYMMETRY_TOL :     0.001000

%BLOCK symmetry_ops
# Symm. op. 1       E
          1.000000000000000       0.000000000000000       0.000000000000000
          0.000000000000000       1.000000000000000       0.000000000000000
          0.000000000000000       0.000000000000000       1.000000000000000
          0.000000000000000       0.000000000000000       0.000000000000000
%ENDBLOCK symmetry_ops

kpoint_mp_grid :    5   5   5

