# CELL file written 00:53:12 (GMT+1.0) 6th November 2021 from run al2o3_xc-LDA_c-0900_k-5x5x5_geom

%BLOCK lattice_cart
   ANG
       2.36560352306484        1.36578151769565        4.29673764770689    
      -2.36560363448280        1.36578174139433        4.29673763811556    
      0.138019729916381E-06   -2.73156405028349        4.29673757893756    
%ENDBLOCK lattice_cart

%BLOCK positions_frac
   O              0.555858295413750       0.944141333358564       0.250000110051379
   O              0.944141402365675       0.250000147942410       0.555858002687867
   O              0.250000398147057       0.555858117854610       0.944141028562077
   O              0.055859045000486       0.750000006553031       0.444141464847675
   O              0.749999684996718       0.444141826708555       0.055858850952475
   O              0.444141578334835       0.055858823578978       0.749999889879945
   Al             0.147992204962038       0.147992298534033       0.147992044983088
   Al             0.647991464415782       0.647991531266415       0.647991304580155
   Al             0.852007919081229       0.852007898457018       0.852007676651929
   Al             0.352008613717333       0.352008622181291       0.352008413933599
%ENDBLOCK positions_frac

FIX_COM : true

%BLOCK species_pot
   O       2|1.1|17|20|23|20:21(qc=8)
   Al      3|2.2|2.2|1.4|4|5|5|30:31:32U2U2
%ENDBLOCK species_pot

SYMMETRY_TOL :     0.001000

%BLOCK symmetry_ops
# Symm. op. 1       E
          1.000000000000000       0.000000000000000       0.000000000000000
          0.000000000000000       1.000000000000000       0.000000000000000
          0.000000000000000       0.000000000000000       1.000000000000000
          0.000000000000000       0.000000000000000       0.000000000000000
%ENDBLOCK symmetry_ops

kpoint_mp_grid :    5   5   5

