# CELL file written 12:47:03 (GMT+1.0) 10th November 2021 from run al2o3_xc-LDA_c-0600_k-2x2x2_geom

%BLOCK lattice_cart
   ANG
       2.37485476042279        1.37112222156493        4.31856829188013    
      -2.37485597047771        1.37112266810246        4.31856881501390    
     -0.218314712134304E-06   -2.74224442630940        4.31856808988911    
%ENDBLOCK lattice_cart

%BLOCK positions_frac
   O              0.555934017943142       0.944066036281934       0.249999974222700
   O              0.944064694493318       0.250000358839437       0.555935033976067
   O              0.249999653013573       0.555935305140671       0.944064899639397
   O              0.055935286328301       0.749999967181568       0.444064896206307
   O              0.750000130676328       0.444064942972288       0.055934585164297
   O              0.444066308556426       0.055933939882825       0.749999942875651
   Al             0.148028816743498       0.148028556773626       0.148028514337453
   Al             0.648028641487166       0.648028707813070       0.648028600021616
   Al             0.851971410173483       0.851971462833013       0.851971200133483
   Al             0.351971647019671       0.351971328716473       0.351971140553219
%ENDBLOCK positions_frac

FIX_COM : true

%BLOCK species_pot
   O       2|1.1|17|20|23|20:21(qc=8)
   Al      3|2.2|2.2|1.4|4|5|5|30:31:32U2U2
%ENDBLOCK species_pot

SYMMETRY_TOL :     0.001000

%BLOCK symmetry_ops
# Symm. op. 1       E
          1.000000000000000       0.000000000000000       0.000000000000000
          0.000000000000000       1.000000000000000       0.000000000000000
          0.000000000000000       0.000000000000000       1.000000000000000
          0.000000000000000       0.000000000000000       0.000000000000000
%ENDBLOCK symmetry_ops

kpoint_mp_grid :    2   2   2

