# CELL file written 13:28:12 (GMT+1.0) 10th November 2021 from run al2o3_xc-PBESOL_c-0600_k-2x2x2_geom

%BLOCK lattice_cart
   ANG
       2.40081708574893        1.38567373483714        4.37409678133827    
      -2.40073513126878        1.38564429185412        4.37406101881431    
      0.154600208105874E-04   -2.77285665694665        4.37456735738421    
%ENDBLOCK lattice_cart

%BLOCK positions_frac
   O              0.556329827259314       0.943670421057573       0.249999811540657
   O              0.943670292406839       0.250000097492527       0.556329610230869
   O              0.250000105465955       0.556329598663993       0.943670246716064
   O              0.056329709088902       0.749999989206230       0.443670315743437
   O              0.749999995390681       0.443670691737624       0.056329332689013
   O              0.443670464817443       0.056329532932715       0.749999991622167
   Al             0.147927831350699       0.147927932790773       0.147927753876848
   Al             0.647927875472120       0.647927942717082       0.647927797417621
   Al             0.852072225202327       0.852072178832744       0.852071970312341
   Al             0.352072279980625       0.352072221003644       0.352071956981174
%ENDBLOCK positions_frac

FIX_COM : true

%BLOCK species_pot
   O       2|1.1|17|20|23|20:21(qc=8)
   Al      3|2.2|2.2|1.4|4|5|5|30:31:32U2U2
%ENDBLOCK species_pot

SYMMETRY_TOL :     0.001000

%BLOCK symmetry_ops
# Symm. op. 1       E
          1.000000000000000       0.000000000000000       0.000000000000000
          0.000000000000000       1.000000000000000       0.000000000000000
          0.000000000000000       0.000000000000000       1.000000000000000
          0.000000000000000       0.000000000000000       0.000000000000000
%ENDBLOCK symmetry_ops

kpoint_mp_grid :    2   2   2

