# CELL file written 13:38:23 (GMT+1.0) 10th November 2021 from run al2o3_xc-PBESOL_c-0600_k-4x4x4_geom

%BLOCK lattice_cart
   ANG
       2.39773927499757        1.38433458457846        4.36260786063741    
      -2.39773924791973        1.38433484279638        4.36260776368386    
      0.237162158416273E-06   -2.76867127221679        4.36260807780692    
%ENDBLOCK lattice_cart

%BLOCK positions_frac
   O              0.556439724172462       0.943560155691414       0.249999939491995
   O              0.943560603922672       0.250000021037453       0.556439454158057
   O              0.250000223871056       0.556439513056014       0.943560218746510
   O              0.056439269181691       0.750000155529288       0.443560481278878
   O              0.749999889773377       0.443560810099318       0.056439378857325
   O              0.443560598188570       0.056439715303773       0.749999834230031
   Al             0.147898384758528       0.147898346745882       0.147898124443769
   Al             0.647898401412107       0.647898390825396       0.647898206714373
   Al             0.852101724132182       0.852101730147619       0.852101583763486
   Al             0.352101787022261       0.352101767998746       0.352101565445763
%ENDBLOCK positions_frac

FIX_COM : true

%BLOCK species_pot
   O       2|1.1|17|20|23|20:21(qc=8)
   Al      3|2.2|2.2|1.4|4|5|5|30:31:32U2U2
%ENDBLOCK species_pot

SYMMETRY_TOL :     0.001000

%BLOCK symmetry_ops
# Symm. op. 1       E
          1.000000000000000       0.000000000000000       0.000000000000000
          0.000000000000000       1.000000000000000       0.000000000000000
          0.000000000000000       0.000000000000000       1.000000000000000
          0.000000000000000       0.000000000000000       0.000000000000000
%ENDBLOCK symmetry_ops

kpoint_mp_grid :    4   4   4

