# CELL file written 14:14:59 (GMT+1.0) 10th November 2021 from run al2o3_xc-PBESOL_c-0600_k-7x7x7_geom

%BLOCK lattice_cart
   ANG
       2.39724957284243        1.38405253439905        4.36303494360507    
      -2.39724947066514        1.38405245184367        4.36303491354793    
     -0.204064089458459E-07   -2.76810550280384        4.36303477308546    
%ENDBLOCK lattice_cart

%BLOCK positions_frac
   O              0.556499007128242       0.943501110208894       0.249999876242513
   O              0.943501128696361       0.250000040297509       0.556498838832070
   O              0.250000077058352       0.556499033691418       0.943500898621906
   O              0.056498980162891       0.750000078149705       0.443500930862301
   O              0.750000044854786       0.443501108906401       0.056498843258382
   O              0.443501127086057       0.056498994351111       0.749999883379643
   Al             0.147920685477260       0.147920691599996       0.147920519811320
   Al             0.647920701914212       0.647920694572808       0.647920516360081
   Al             0.852079433396288       0.852079424819967       0.852079242671724
   Al             0.352079420660455       0.352079429837097       0.352079237090248
%ENDBLOCK positions_frac

FIX_COM : true

%BLOCK species_pot
   O       2|1.1|17|20|23|20:21(qc=8)
   Al      3|2.2|2.2|1.4|4|5|5|30:31:32U2U2
%ENDBLOCK species_pot

SYMMETRY_TOL :     0.001000

%BLOCK symmetry_ops
# Symm. op. 1       E
          1.000000000000000       0.000000000000000       0.000000000000000
          0.000000000000000       1.000000000000000       0.000000000000000
          0.000000000000000       0.000000000000000       1.000000000000000
          0.000000000000000       0.000000000000000       0.000000000000000
%ENDBLOCK symmetry_ops

kpoint_mp_grid :    7   7   7

