# CELL file written 00:13:44 (GMT+1.0) 6th November 2021 from run al2o3_xc-LDA_c-0400_k-5x5x5_geom

%BLOCK lattice_cart
   ANG
       2.50173522241357        1.44437735924081        4.54655073595321    
      -2.50173524070624        1.44437735660955        4.54655074492251    
     -0.114250943486250E-07   -2.88875520818204        4.54655056364591    
%ENDBLOCK lattice_cart

%BLOCK positions_frac
   O              0.562229489618450       0.937770633219864       0.249999890698952
   O              0.937770608854886       0.250000080553568       0.562229265885940
   O              0.250000064193563       0.562229502238924       0.937770454816851
   O              0.062229540220355       0.750000012720873       0.437770488812032
   O              0.750000066671500       0.437770626419350       0.062229293993095
   O              0.437770601425092       0.062229495430489       0.749999889765392
   Al             0.147985617547178       0.147985626677566       0.147985493529590
   Al             0.647985655996202       0.647985620599101       0.647985412533572
   Al             0.852014501239539       0.852014515271351       0.852014305014248
   Al             0.352014460668141       0.352014493303820       0.352014292080516
%ENDBLOCK positions_frac

FIX_COM : true

%BLOCK species_pot
   O       2|1.1|17|20|23|20:21(qc=8)
   Al      3|2.2|2.2|1.4|4|5|5|30:31:32U2U2
%ENDBLOCK species_pot

SYMMETRY_TOL :     0.001000

%BLOCK symmetry_ops
# Symm. op. 1       E
          1.000000000000000       0.000000000000000       0.000000000000000
          0.000000000000000       1.000000000000000       0.000000000000000
          0.000000000000000       0.000000000000000       1.000000000000000
          0.000000000000000       0.000000000000000       0.000000000000000
%ENDBLOCK symmetry_ops

kpoint_mp_grid :    5   5   5

