# CELL file written 02:02:28 (GMT+1.0) 6th November 2021 from run al2o3_xc-PBESOL_c-0900_k-5x5x5_geom

%BLOCK lattice_cart
   ANG
       2.38577769723215        1.37742958576642        4.33678414613501    
      -2.38577902512968        1.37743006958806        4.33678472188421    
     -0.244947251534260E-06   -2.75485949265410        4.33678406534830    
%ENDBLOCK lattice_cart

%BLOCK positions_frac
   O              0.555797033802084       0.944202985385770       0.249999892276822
   O              0.944202551256921       0.250000019249743       0.555797394656560
   O              0.249999993021338       0.555797272502166       0.944202714689085
   O              0.055797444745928       0.750000070309083       0.444202526187721
   O              0.750000116734457       0.444202917277275       0.055797036753478
   O              0.444203186168469       0.055797067550471       0.749999767446451
   Al             0.147928768370886       0.147928784435172       0.147928445024001
   Al             0.647928721187757       0.647928785578180       0.647928636892291
   Al             0.852071401576473       0.852071369099350       0.852071262116197
   Al             0.352071389570592       0.352071335047696       0.352071111087585
%ENDBLOCK positions_frac

FIX_COM : true

%BLOCK species_pot
   O       2|1.1|17|20|23|20:21(qc=8)
   Al      3|2.2|2.2|1.4|4|5|5|30:31:32U2U2
%ENDBLOCK species_pot

SYMMETRY_TOL :     0.001000

%BLOCK symmetry_ops
# Symm. op. 1       E
          1.000000000000000       0.000000000000000       0.000000000000000
          0.000000000000000       1.000000000000000       0.000000000000000
          0.000000000000000       0.000000000000000       1.000000000000000
          0.000000000000000       0.000000000000000       0.000000000000000
%ENDBLOCK symmetry_ops

kpoint_mp_grid :    5   5   5

