# CELL file written 11:31:03 (GMT+1.0) 8th November 2021 from run al2o3_xc-LDA_c-1200_k-5x5x5_geom

%BLOCK lattice_cart
   ANG
       2.36561945562464        1.36579069334057        4.29668661514656    
      -2.36561922880989        1.36579090426609        4.29668642362969    
      0.296074260526489E-06   -2.73158204385802        4.29668634571101    
%ENDBLOCK lattice_cart

%BLOCK positions_frac
   O              0.555859126141314       0.944140985467224       0.250000031596850
   O              0.944140722735949       0.250000028160445       0.555858901413450
   O              0.250000315389480       0.555859009501984       0.944140682870237
   O              0.055859214885897       0.750000053125070       0.444140937646847
   O              0.749999983614304       0.444141105639930       0.055858956465337
   O              0.444140979090754       0.055859133093476       0.749999790069009
   Al             0.147991516058972       0.147991604274089       0.147991368843056
   Al             0.647991587409624       0.647991545337196       0.647991363561376
   Al             0.852008594931531       0.852008563310471       0.852008384149200
   Al             0.352008566177080       0.352008578525019       0.352008370514829
%ENDBLOCK positions_frac

FIX_COM : true

%BLOCK species_pot
   O       2|1.1|17|20|23|20:21(qc=8)
   Al      3|2.2|2.2|1.4|4|5|5|30:31:32U2U2
%ENDBLOCK species_pot

SYMMETRY_TOL :     0.001000

%BLOCK symmetry_ops
# Symm. op. 1       E
          1.000000000000000       0.000000000000000       0.000000000000000
          0.000000000000000       1.000000000000000       0.000000000000000
          0.000000000000000       0.000000000000000       1.000000000000000
          0.000000000000000       0.000000000000000       0.000000000000000
%ENDBLOCK symmetry_ops

kpoint_mp_grid :    5   5   5

