# CELL file written 13:32:21 (GMT+1.0) 10th November 2021 from run al2o3_xc-PBESOL_c-0600_k-3x3x3_geom

%BLOCK lattice_cart
   ANG
       2.39653441973321        1.38363913838122        4.36284189151270    
      -2.39653582701016        1.38363723288690        4.36284326974216    
     -0.235384456038541E-05   -2.76728117466251        4.36284378515082    
%ENDBLOCK lattice_cart

%BLOCK positions_frac
   O              0.556524189542741       0.943476450786900       0.249999679718796
   O              0.943475962760006       0.250000152825118       0.556523238830057
   O              0.250000309078967       0.556524228926516       0.943475652222075
   O              0.056524292437780       0.749999875275328       0.443476248559967
   O              0.749999864713900       0.443475817863183       0.056524298008964
   O              0.443475692719147       0.056523924948214       0.750000163327548
   Al             0.147922568972800       0.147922597827622       0.147922428023805
   Al             0.647922525638628       0.647922614446576       0.647922451869536
   Al             0.852077541713411       0.852077456100739       0.852077347206806
   Al             0.352077658857523       0.352077487434707       0.352077279362636
%ENDBLOCK positions_frac

FIX_COM : true

%BLOCK species_pot
   O       2|1.1|17|20|23|20:21(qc=8)
   Al      3|2.2|2.2|1.4|4|5|5|30:31:32U2U2
%ENDBLOCK species_pot

SYMMETRY_TOL :     0.001000

%BLOCK symmetry_ops
# Symm. op. 1       E
          1.000000000000000       0.000000000000000       0.000000000000000
          0.000000000000000       1.000000000000000       0.000000000000000
          0.000000000000000       0.000000000000000       1.000000000000000
          0.000000000000000       0.000000000000000       0.000000000000000
%ENDBLOCK symmetry_ops

kpoint_mp_grid :    3   3   3

