# CELL file written 13:42:45 (GMT+1.0) 10th November 2021 from run al2o3_xc-PBESOL_c-0600_k-5x5x5_geom

%BLOCK lattice_cart
   ANG
       2.39759512516193        1.38425182615304        4.36499036721757    
      -2.39759468636475        1.38425180530080        4.36499013210368    
      0.201340019562818E-06   -2.76850433761162        4.36499015458137    
%ENDBLOCK lattice_cart

%BLOCK positions_frac
   O              0.556451249283493       0.943548906860217       0.249999884526959
   O              0.943548853073139       0.250000063826861       0.556451071730094
   O              0.250000067996632       0.556451189409527       0.943548709468006
   O              0.056451293918647       0.750000055830193       0.443548687166109
   O              0.750000033774112       0.443548905664058       0.056451073838328
   O              0.443548852325063       0.056451247390777       0.749999871113583
   Al             0.147919726961452       0.147919768857793       0.147919563722011
   Al             0.647919740188170       0.647919743352286       0.647919578869415
   Al             0.852080389363500       0.852080369761058       0.852080177008924
   Al             0.352080399550697       0.352080355482136       0.352080169686760
%ENDBLOCK positions_frac

FIX_COM : true

%BLOCK species_pot
   O       2|1.1|17|20|23|20:21(qc=8)
   Al      3|2.2|2.2|1.4|4|5|5|30:31:32U2U2
%ENDBLOCK species_pot

SYMMETRY_TOL :     0.001000

%BLOCK symmetry_ops
# Symm. op. 1       E
          1.000000000000000       0.000000000000000       0.000000000000000
          0.000000000000000       1.000000000000000       0.000000000000000
          0.000000000000000       0.000000000000000       1.000000000000000
          0.000000000000000       0.000000000000000       0.000000000000000
%ENDBLOCK symmetry_ops

kpoint_mp_grid :    5   5   5

