# CELL file written 13:03:16 (GMT+1.0) 10th November 2021 from run al2o3_xc-LDA_c-0600_k-6x6x6_geom

%BLOCK lattice_cart
   ANG
       2.37576224341762        1.37164683900895        4.32177995937240    
      -2.37576236433665        1.37164682973530        4.32178002897309    
     -0.684905722191325E-07   -2.74329436562247        4.32177989837632    
%ENDBLOCK lattice_cart

%BLOCK positions_frac
   O              0.556138461966191       0.943861739076636       0.249999886288821
   O              0.943861716870179       0.250000080863465       0.556138076797271
   O              0.250000084133364       0.556138304033374       0.943861640725531
   O              0.056138395314362       0.750000036119848       0.443861659168050
   O              0.750000040979079       0.443861808673814       0.056138139172279
   O              0.443861666749848       0.056138405153784       0.749999870003294
   Al             0.147980592580178       0.147980637488421       0.147980473999615
   Al             0.647980622721667       0.647980625597250       0.647980445902121
   Al             0.852019530581638       0.852019478346359       0.852019292272162
   Al             0.352019494538399       0.352019491081953       0.352019302801045
%ENDBLOCK positions_frac

FIX_COM : true

%BLOCK species_pot
   O       2|1.1|17|20|23|20:21(qc=8)
   Al      3|2.2|2.2|1.4|4|5|5|30:31:32U2U2
%ENDBLOCK species_pot

SYMMETRY_TOL :     0.001000

%BLOCK symmetry_ops
# Symm. op. 1       E
          1.000000000000000       0.000000000000000       0.000000000000000
          0.000000000000000       1.000000000000000       0.000000000000000
          0.000000000000000       0.000000000000000       1.000000000000000
          0.000000000000000       0.000000000000000       0.000000000000000
%ENDBLOCK symmetry_ops

kpoint_mp_grid :    6   6   6

