# CELL file written 13:56:42 (GMT+1.0) 10th November 2021 from run al2o3_xc-PBESOL_c-0600_k-6x6x6_geom

%BLOCK lattice_cart
   ANG
       2.39724522054457        1.38405003571116        4.36295401073070    
      -2.39724528400688        1.38405024805243        4.36295397781235    
      0.152161810949325E-06   -2.76810041360303        4.36295371633759    
%ENDBLOCK lattice_cart

%BLOCK positions_frac
   O              0.556382311229511       0.943617790440593       0.249999877911807
   O              0.943617832998995       0.250000005985630       0.556382181809036
   O              0.250000143986690       0.556382259261187       0.943617587277523
   O              0.056382362310573       0.750000116711227       0.443617501942879
   O              0.749999989782794       0.443617781004455       0.056382259366597
   O              0.443617698292508       0.056382428630319       0.749999869648342
   Al             0.147908684645912       0.147908676056615       0.147908466834956
   Al             0.647908630913387       0.647908660155196       0.647908500413179
   Al             0.852091482520331       0.852091447418940       0.852091285452520
   Al             0.352091469754205       0.352091440770742       0.352091256473350
%ENDBLOCK positions_frac

FIX_COM : true

%BLOCK species_pot
   O       2|1.1|17|20|23|20:21(qc=8)
   Al      3|2.2|2.2|1.4|4|5|5|30:31:32U2U2
%ENDBLOCK species_pot

SYMMETRY_TOL :     0.001000

%BLOCK symmetry_ops
# Symm. op. 1       E
          1.000000000000000       0.000000000000000       0.000000000000000
          0.000000000000000       1.000000000000000       0.000000000000000
          0.000000000000000       0.000000000000000       1.000000000000000
          0.000000000000000       0.000000000000000       0.000000000000000
%ENDBLOCK symmetry_ops

kpoint_mp_grid :    6   6   6

