# CELL file written 01:12:50 (GMT+1.0) 6th November 2021 from run al2o3_xc-PBESOL_c-0500_k-5x5x5_geom

%BLOCK lattice_cart
   ANG
       2.43822303083610        1.40764701213281        4.41103790401669    
      -2.43812527730459        1.40765184194729        4.41098297773398    
      0.530594996632431E-04   -2.81538757103844        4.41103809711355    
%ENDBLOCK lattice_cart

%BLOCK positions_frac
   O              0.552265412247886       0.947734862172253       0.249999839964618
   O              0.947735036593105       0.250000114978275       0.552264828113862
   O              0.249999931394786       0.552265401948565       0.947734555633752
   O              0.052264855688036       0.750000019817878       0.447735174546153
   O              0.750000165192860       0.447734983096411       0.052264921285087
   O              0.447735008208847       0.052264964982492       0.749999913070287
   Al             0.147534393673341       0.147534131195438       0.147534704437097
   Al             0.647534985126803       0.647534230946273       0.647534384071772
   Al             0.852465588800468       0.852465879652176       0.852464962303995
   Al             0.352465229508773       0.352466017645144       0.352465503703567
%ENDBLOCK positions_frac

FIX_COM : true

%BLOCK species_pot
   O       2|1.1|17|20|23|20:21(qc=8)
   Al      3|2.2|2.2|1.4|4|5|5|30:31:32U2U2
%ENDBLOCK species_pot

SYMMETRY_TOL :     0.001000

%BLOCK symmetry_ops
# Symm. op. 1       E
          1.000000000000000       0.000000000000000       0.000000000000000
          0.000000000000000       1.000000000000000       0.000000000000000
          0.000000000000000       0.000000000000000       1.000000000000000
          0.000000000000000       0.000000000000000       0.000000000000000
%ENDBLOCK symmetry_ops

kpoint_mp_grid :    5   5   5

