# CELL file written 12:49:15 (GMT+1.0) 10th November 2021 from run al2o3_xc-LDA_c-0600_k-3x3x3_geom

%BLOCK lattice_cart
   ANG
       2.37759478112940        1.37268213102733        4.32282920704009    
      -2.37757418708378        1.37268176994620        4.32281801714958    
      0.998431452765856E-05   -2.74541736294615        4.32284023816136    
%ENDBLOCK lattice_cart

%BLOCK positions_frac
   O              0.556023259805743       0.943976875152786       0.249999945843746
   O              0.943977217212702       0.250000100285535       0.556022816078598
   O              0.250000329417160       0.556023171291365       0.943976690983767
   O              0.056022840125591       0.750000060373183       0.443976997097742
   O              0.749999930619376       0.443976967489598       0.056023014353754
   O              0.443976798537663       0.056023254821834       0.749999906240851
   Al             0.147988902663723       0.147989042722154       0.147988496691231
   Al             0.647988867960448       0.647989098238424       0.647988526102420
   Al             0.852011211747396       0.852011042615373       0.852011199056670
   Al             0.352011248345104       0.352010993444654       0.352011194681409
%ENDBLOCK positions_frac

FIX_COM : true

%BLOCK species_pot
   O       2|1.1|17|20|23|20:21(qc=8)
   Al      3|2.2|2.2|1.4|4|5|5|30:31:32U2U2
%ENDBLOCK species_pot

SYMMETRY_TOL :     0.001000

%BLOCK symmetry_ops
# Symm. op. 1       E
          1.000000000000000       0.000000000000000       0.000000000000000
          0.000000000000000       1.000000000000000       0.000000000000000
          0.000000000000000       0.000000000000000       1.000000000000000
          0.000000000000000       0.000000000000000       0.000000000000000
%ENDBLOCK symmetry_ops

kpoint_mp_grid :    3   3   3

