# CELL file written 11:13:37 (GMT+1.0) 8th November 2021 from run al2o3_xc-LDA_c-1000_k-5x5x5_geom

%BLOCK lattice_cart
   ANG
       2.36557623642407        1.36576607310941        4.29750574432244    
      -2.36557584460287        1.36576598440975        4.29750555790806    
      0.119094546777955E-06   -2.73153257149255        4.29750549906425    
%ENDBLOCK lattice_cart

%BLOCK positions_frac
   O              0.555821858321550       0.944178299800948       0.249999851043199
   O              0.944178453724292       0.250000037848199       0.555821577036003
   O              0.250000148151993       0.555821692633270       0.944178060204051
   O              0.055821708560329       0.750000063810416       0.444178169494533
   O              0.749999939957249       0.444178363038008       0.055821797585291
   O              0.444178225711665       0.055821909470446       0.749999873317254
   Al             0.147995798168177       0.147995800651001       0.147995643604297
   Al             0.647995838028313       0.647995803063693       0.647995626029271
   Al             0.852004339084708       0.852004323963908       0.852004077865146
   Al             0.352004296726629       0.352004312155016       0.352004110951144
%ENDBLOCK positions_frac

FIX_COM : true

%BLOCK species_pot
   O       2|1.1|17|20|23|20:21(qc=8)
   Al      3|2.2|2.2|1.4|4|5|5|30:31:32U2U2
%ENDBLOCK species_pot

SYMMETRY_TOL :     0.001000

%BLOCK symmetry_ops
# Symm. op. 1       E
          1.000000000000000       0.000000000000000       0.000000000000000
          0.000000000000000       1.000000000000000       0.000000000000000
          0.000000000000000       0.000000000000000       1.000000000000000
          0.000000000000000       0.000000000000000       0.000000000000000
%ENDBLOCK symmetry_ops

kpoint_mp_grid :    5   5   5

