# CELL file written 00:04:24 (GMT+1.0) 6th November 2021 from run al2o3_xc-LDA_c-0200_k-5x5x5_geom

%BLOCK lattice_cart
   ANG
       2.81369388188564        1.62448669375559        4.96448934481158    
      -2.81369401121430        1.62448667966809        4.96448941649793    
     -0.768644620689006E-07   -3.24897413505221        4.96448923951866    
%ENDBLOCK lattice_cart

%BLOCK positions_frac
   O              0.552409911533702       0.947593116732617       0.249998191372712
   O              0.947593067431868       0.249998382193486       0.552409744005773
   O              0.249998356910450       0.552409943942950       0.947592906774257
   O              0.052407074056108       0.750001738249668       0.447590000319933
   O              0.750001767076674       0.447590158557182       0.052406862476852
   O              0.447590194566801       0.052407018761837       0.750001565608378
   Al             0.151341422471819       0.151341423143983       0.151341259425984
   Al             0.651337776373912       0.651337804782225       0.651337612915440
   Al             0.848658696759943       0.848658702830094       0.848658500572694
   Al             0.348662339253629       0.348662317240863       0.348662143658167
%ENDBLOCK positions_frac

FIX_COM : true

%BLOCK species_pot
   O       2|1.1|17|20|23|20:21(qc=8)
   Al      3|2.2|2.2|1.4|4|5|5|30:31:32U2U2
%ENDBLOCK species_pot

SYMMETRY_TOL :     0.001000

%BLOCK symmetry_ops
# Symm. op. 1       E
          1.000000000000000       0.000000000000000       0.000000000000000
          0.000000000000000       1.000000000000000       0.000000000000000
          0.000000000000000       0.000000000000000       1.000000000000000
          0.000000000000000       0.000000000000000       0.000000000000000
%ENDBLOCK symmetry_ops

kpoint_mp_grid :    5   5   5

