#######################################################
#CASTEP cell file: /local/scratch/jks/Al2O3/convergence/cutoff/al2o3_xc-PBESOL_c-0700_k-5x5x5_geom.cell
#Created using the Atomic Simulation Environment (ASE)#
#######################################################

%BLOCK LATTICE_CART
 2.380100  1.374151  4.331000
-2.380100  1.374151  4.331000
 0.000000 -2.748303  4.331000
%ENDBLOCK LATTICE_CART

%BLOCK POSITIONS_ABS
Al -0.000000 -0.000000  1.921665
Al -0.000000 -0.000000  8.418165
Al  0.000000  0.000000 11.071335
Al -0.000000 -0.000000  4.574835
O -0.922241  1.374151  7.579250
O  1.651171  0.111609  7.579250
O -0.728929 -1.485760  7.579250
O -1.651171 -0.111609  5.413750
O  0.728929  1.485760  5.413750
O  0.922241 -1.374151  5.413750
%ENDBLOCK POSITIONS_ABS

KPOINT_MP_GRID: 5 5 5
