# CELL file written 12:52:09 (GMT+1.0) 10th November 2021 from run al2o3_xc-LDA_c-0600_k-4x4x4_geom

%BLOCK lattice_cart
   ANG
       2.37601886031035        1.37179568413292        4.32349255035857    
      -2.37601938963396        1.37179521435683        4.32349299009414    
     -0.671500221026666E-06   -2.74359112333094        4.32349252477013    
%ENDBLOCK lattice_cart

%BLOCK positions_frac
   O              0.556139586598879       0.943860367162913       0.249999952745749
   O              0.943860795451820       0.249999986794119       0.556139438338702
   O              0.249999789761292       0.556139557728461       0.943860414453110
   O              0.056139523392552       0.750000155080319       0.443860165269069
   O              0.750000165387519       0.443860712443003       0.056139265406198
   O              0.443860720870435       0.056139515417919       0.749999926382783
   Al             0.148003322435821       0.148003340595117       0.148003160285593
   Al             0.648003320149295       0.648003314261754       0.648003183480882
   Al             0.851996686446894       0.851996803338039       0.851996650779671
   Al             0.351996695940398       0.351996853613261       0.351996629988432
%ENDBLOCK positions_frac

FIX_COM : true

%BLOCK species_pot
   O       2|1.1|17|20|23|20:21(qc=8)
   Al      3|2.2|2.2|1.4|4|5|5|30:31:32U2U2
%ENDBLOCK species_pot

SYMMETRY_TOL :     0.001000

%BLOCK symmetry_ops
# Symm. op. 1       E
          1.000000000000000       0.000000000000000       0.000000000000000
          0.000000000000000       1.000000000000000       0.000000000000000
          0.000000000000000       0.000000000000000       1.000000000000000
          0.000000000000000       0.000000000000000       0.000000000000000
%ENDBLOCK symmetry_ops

kpoint_mp_grid :    4   4   4

