# CELL file written 01:00:08 (GMT+1.0) 6th November 2021 from run al2o3_xc-PBESOL_c-0200_k-5x5x5_geom

%BLOCK lattice_cart
   ANG
       2.85683419465451        1.64939379399922        5.05274608166159    
      -2.85683423529598        1.64939376392291        5.05274611093678    
     -0.463675864705831E-07   -3.29878819951040        5.05274591818641    
%ENDBLOCK lattice_cart

%BLOCK positions_frac
   O              0.547326111212938       0.952232016713631       0.250203634959924
   O              0.952232006554088       0.250203814885789       0.547325926359095
   O              0.250203816669857       0.547326126791467       0.952231817029309
   O              0.047768105941026       0.749796301589455       0.452673833922415
   O              0.749796304216697       0.452674001402269       0.047767938040723
   O              0.452674018131661       0.047768098302985       0.749796121995138
   Al             0.152540661957190       0.152540668714781       0.152540502195271
   Al             0.653010618207426       0.653010644297390       0.653010444999884
   Al             0.847459459766001       0.847459451161726       0.847459254635805
   Al             0.346989503778008       0.346989482575420       0.346989312992619
%ENDBLOCK positions_frac

FIX_COM : true

%BLOCK species_pot
   O       2|1.1|17|20|23|20:21(qc=8)
   Al      3|2.2|2.2|1.4|4|5|5|30:31:32U2U2
%ENDBLOCK species_pot

SYMMETRY_TOL :     0.001000

%BLOCK symmetry_ops
# Symm. op. 1       E
          1.000000000000000       0.000000000000000       0.000000000000000
          0.000000000000000       1.000000000000000       0.000000000000000
          0.000000000000000       0.000000000000000       1.000000000000000
          0.000000000000000       0.000000000000000       0.000000000000000
%ENDBLOCK symmetry_ops

kpoint_mp_grid :    5   5   5

