# CELL file written 14:05:39 (GMT+1.0) 8th November 2021 from run al2o3_xc-PBESOL_c-1400_k-5x5x5_geom

%BLOCK lattice_cart
   ANG
       2.38618313270031        1.37766526392919        4.33755403651162    
      -2.38618042222529        1.37766227971012        4.33755349422907    
     -0.122917151832036E-05   -2.75532663256401        4.33755315877107    
%ENDBLOCK lattice_cart

%BLOCK positions_frac
   O              0.556102792635938       0.943897274326716       0.249999936380268
   O              0.943896845375204       0.250000095809039       0.556103159101285
   O              0.250000204397733       0.556102583856260       0.943897229591298
   O              0.056103128417990       0.750000112432166       0.443896646984549
   O              0.749999984220605       0.443897704495601       0.056102416697391
   O              0.443897407981774       0.056102580928328       0.749999940204950
   Al             0.147922188754345       0.147922157049595       0.147922018590620
   Al             0.647922189238217       0.647922193212251       0.647921995635671
   Al             0.852077939581386       0.852077964028512       0.852077706636262
   Al             0.352077925831711       0.352077940296436       0.352077737307897
%ENDBLOCK positions_frac

FIX_COM : true

%BLOCK species_pot
   O       2|1.1|17|20|23|20:21(qc=8)
   Al      3|2.2|2.2|1.4|4|5|5|30:31:32U2U2
%ENDBLOCK species_pot

SYMMETRY_TOL :     0.001000

%BLOCK symmetry_ops
# Symm. op. 1       E
          1.000000000000000       0.000000000000000       0.000000000000000
          0.000000000000000       1.000000000000000       0.000000000000000
          0.000000000000000       0.000000000000000       1.000000000000000
          0.000000000000000       0.000000000000000       0.000000000000000
%ENDBLOCK symmetry_ops

kpoint_mp_grid :    5   5   5

