# CELL file written 12:02:38 (GMT+1.0) 8th November 2021 from run al2o3_xc-LDA_c-1400_k-5x5x5_geom

%BLOCK lattice_cart
   ANG
       2.36531132035846        1.36561357697486        4.29622447731590    
      -2.36531132911197        1.36561342447076        4.29622453046513    
     -0.136449163515470E-06   -2.73122612453739        4.29622391018901    
%ENDBLOCK lattice_cart

%BLOCK positions_frac
   O              0.555862584151859       0.944137737684485       0.249999764792256
   O              0.944137960024433       0.249999964234796       0.555862229810828
   O              0.250000431307464       0.555862204519773       0.944137041979700
   O              0.055862273094521       0.750000214282640       0.444137498310809
   O              0.749999600982390       0.444138010443665       0.055862652697037
   O              0.444137545810976       0.055862216036083       0.750000069874340
   Al             0.147990530442090       0.147990524541827       0.147990392784015
   Al             0.647990531460179       0.647990530615604       0.647990356041441
   Al             0.852009620551596       0.852009608450202       0.852009354436287
   Al             0.352009528609398       0.352009595625830       0.352009426403477
%ENDBLOCK positions_frac

FIX_COM : true

%BLOCK species_pot
   O       2|1.1|17|20|23|20:21(qc=8)
   Al      3|2.2|2.2|1.4|4|5|5|30:31:32U2U2
%ENDBLOCK species_pot

SYMMETRY_TOL :     0.001000

%BLOCK symmetry_ops
# Symm. op. 1       E
          1.000000000000000       0.000000000000000       0.000000000000000
          0.000000000000000       1.000000000000000       0.000000000000000
          0.000000000000000       0.000000000000000       1.000000000000000
          0.000000000000000       0.000000000000000       0.000000000000000
%ENDBLOCK symmetry_ops

kpoint_mp_grid :    5   5   5

