# CELL file written 13:26:18 (GMT+1.0) 10th November 2021 from run al2o3_xc-PBESOL_c-0600_k-1x1x1_geom

%BLOCK lattice_cart
   ANG
       2.38748683404405        1.37750325982013        4.36348185956729    
      -2.38741652041012        1.37750154583389        4.36344336348026    
      0.336720011732236E-04   -2.75725452405828        4.36417913746824    
%ENDBLOCK lattice_cart

%BLOCK positions_frac
   O              0.561705812768946       0.938297752052138       0.249996818995664
   O              0.938296579198012       0.249986771426620       0.561707132609607
   O              0.250015823132453       0.561697627735589       0.938297268605452
   O              0.061703443720881       0.750013414171661       0.438292495962754
   O              0.749984353065121       0.438302374814024       0.061702422541734
   O              0.438294359526766       0.061702380367870       0.750003044178170
   Al             0.147758976028731       0.147763164458606       0.147761138504969
   Al             0.647762857887249       0.647760252468827       0.647760615477754
   Al             0.852241117057694       0.852237018369236       0.852238668773515
   Al             0.352237284049050       0.352239850570333       0.352239181480570
%ENDBLOCK positions_frac

FIX_COM : true

%BLOCK species_pot
   O       2|1.1|17|20|23|20:21(qc=8)
   Al      3|2.2|2.2|1.4|4|5|5|30:31:32U2U2
%ENDBLOCK species_pot

SYMMETRY_TOL :     0.001000

%BLOCK symmetry_ops
# Symm. op. 1       E
          1.000000000000000       0.000000000000000       0.000000000000000
          0.000000000000000       1.000000000000000       0.000000000000000
          0.000000000000000       0.000000000000000       1.000000000000000
          0.000000000000000       0.000000000000000       0.000000000000000
%ENDBLOCK symmetry_ops

kpoint_mp_grid :    1   1   1

