# CELL file written 01:44:14 (GMT+1.0) 6th November 2021 from run al2o3_xc-PBESOL_c-0800_k-5x5x5_geom

%BLOCK lattice_cart
   ANG
       2.38649448538161        1.37784453310529        4.33737136561161    
      -2.38649591246211        1.37784383307553        4.33737236644791    
     -0.131978225661261E-05   -2.75568644409909        4.33737093746076    
%ENDBLOCK lattice_cart

%BLOCK positions_frac
   O              0.555861073505252       0.944138916739015       0.249999857720516
   O              0.944138902889941       0.249999837544542       0.555860899190362
   O              0.250000014571255       0.555861467853615       0.944138822263235
   O              0.055860531983471       0.750000611778471       0.444138579537302
   O              0.749999838631181       0.444138677051115       0.055861473651319
   O              0.444139050372156       0.055861291849455       0.750000032158595
   Al             0.147942082598622       0.147941785623350       0.147941469730585
   Al             0.647942211201877       0.647941695669535       0.647941569035167
   Al             0.852058443863732       0.852058094547574       0.852058194320718
   Al             0.352058456817416       0.352058227778231       0.352057889522389
%ENDBLOCK positions_frac

FIX_COM : true

%BLOCK species_pot
   O       2|1.1|17|20|23|20:21(qc=8)
   Al      3|2.2|2.2|1.4|4|5|5|30:31:32U2U2
%ENDBLOCK species_pot

SYMMETRY_TOL :     0.001000

%BLOCK symmetry_ops
# Symm. op. 1       E
          1.000000000000000       0.000000000000000       0.000000000000000
          0.000000000000000       1.000000000000000       0.000000000000000
          0.000000000000000       0.000000000000000       1.000000000000000
          0.000000000000000       0.000000000000000       0.000000000000000
%ENDBLOCK symmetry_ops

kpoint_mp_grid :    5   5   5

