# CELL file written 03:19:42 (GMT+1.0) 12th November 2021 from run al2o3_xc-PBESOL_c-0700_k-2x2x2_sc-2x2x2_site-0_geom

%BLOCK lattice_cart
   ANG
       4.77236600000000        2.75533100000000        8.67510800000000    
      -4.77236100000000        2.75532500000000        8.67510700000000    
     -0.200000000000000E-05   -5.51065300000000        8.67510600000000    
%ENDBLOCK lattice_cart

%BLOCK cell_constraints
      0   0   0
      0   0   0
%ENDBLOCK cell_constraints

%BLOCK positions_frac
   Li             0.249999985172402       0.250000097658205       0.249999970117401
   O              0.280487898737122       0.465678481012306       0.130259431115212
   O              0.465678413636919       0.130259427933794       0.280487983940849
   O              0.130259421512555       0.280487953431976       0.465678520455579
   O              0.034321575355056       0.369740657455391       0.219512046719552
   O              0.369740574261843       0.219512121418934       0.034321513875103
   O              0.219512107443936       0.034321589268243       0.369740604337064
   O              0.277974668062029       0.474031469753980       0.626405054938751
   O              0.471988369467039       0.124521122286231       0.779710838154687
   O              0.125062114844732       0.275631975708907       0.968082120423467
   O              0.028011601241373       0.375478896976251       0.720289200156041
   O              0.374937839624765       0.224368100108627       0.531917930740131
   O              0.222025321339953       0.025968548851161       0.873595016348368
   O              0.275631853555358       0.968082110618162       0.125062168318775
   O              0.474031478002668       0.626405049910127       0.277974656074810
   O              0.124521137128556       0.779710862945915       0.471988345165814
   O              0.025968464617448       0.873595019943568       0.222025361904206
   O              0.375478817825458       0.720289182697425       0.028011682323856
   O              0.224368116170632       0.531917930287689       0.374937887396070
   O              0.277546989277624       0.973055760130872       0.623325618847926
   O              0.472107830463918       0.625568286730579       0.777270451343038
   O              0.125630470739130       0.775960615150166       0.972620977659822
   O              0.027892131863100       0.874431800073898       0.722729516999434
   O              0.374369515556125       0.724039433573144       0.527379042536869
   O              0.222453001059403       0.526944297765765       0.876674413396147
   O              0.779710775792156       0.471988309291252       0.124521127933187
   O              0.968082165621015       0.125062177415948       0.275631952151668
   O              0.626404990902993       0.277974769932588       0.474031447670631
   O              0.531917750911106       0.374937879003809       0.224368117894108
   O              0.873594925284679       0.222025251146541       0.025968634651755
   O              0.720289160863580       0.028011716945482       0.375478896817108
   O              0.777270427133894       0.472107825468425       0.625568256943784
   O              0.972620892999388       0.125630502760838       0.775960601804097
   O              0.623325462268946       0.277547082917119       0.973055852270138
   O              0.527379055272076       0.374369540433758       0.724039466333651
   O              0.876674480009620       0.222452970646145       0.526944179025359
   O              0.722729474628702       0.027892215673423       0.874431816657554
   O              0.775960472903086       0.972620901540523       0.125630593568912
   O              0.973055838313763       0.623325547077122       0.277547042261481
   O              0.625568224573159       0.777270535351840       0.472107835692461
   O              0.526944107592712       0.876674526867574       0.222452972258242
   O              0.874431783070566       0.722729463514919       0.027892157814451
   O              0.724039442661948       0.527379140118303       0.374369462490357
   O              0.778140764181800       0.972313730112614       0.624698034645974
   O              0.972313712674886       0.624698035416622       0.778140770363631
   O              0.624697950657061       0.778140875312391       0.972313700408364
   O              0.527686186718020       0.875301993583373       0.721859257393280
   O              0.875301933596777       0.721859183613051       0.527686297477411
   O              0.721859143152551       0.527686307386169       0.875301943052214
   Al             0.069893537714640       0.069893526552795       0.069893576223596
   Al             0.332551227045479       0.332551097486712       0.332551276728504
   Al             0.430106438324840       0.430106561464990       0.430106499557856
   Al             0.167448694358585       0.167449010100413       0.167448804300267
   Al             0.073127274371691       0.071833368972703       0.575645854573837
   Al             0.324090677887714       0.323909139164392       0.824206097060881
   Al             0.426872661823544       0.428166699626214       0.924354192203429
   Al             0.175909244212521       0.176090921574270       0.675794003873323
   Al             0.071833388004718       0.575645821919323       0.073127270818457
   Al             0.323909193801180       0.824206000110346       0.324090723326174
   Al             0.428166532221674       0.924354275283282       0.426872759187348
   Al             0.176090760625606       0.675794080418105       0.175909298746695
   Al             0.073388109402744       0.575001286221870       0.575128334357146
   Al             0.324113481441055       0.823620081594298       0.823098933367400
   Al             0.426611794078094       0.924998785191236       0.924871762194640
   Al             0.175886407203622       0.676379983576271       0.676901149461203
   Al             0.575645786451490       0.073127260930757       0.071833375787855
   Al             0.824205952174106       0.324090731754722       0.323909238171385
   Al             0.924354194403868       0.426872787000284       0.428166608089204
   Al             0.675794008018515       0.175909330591467       0.176090798645021
   Al             0.575128304547028       0.073388094039751       0.575001399793367
   Al             0.823098750255165       0.324113509500677       0.823620203418209
   Al             0.924871668211206       0.426611929186946       0.924998661560950
   Al             0.676901238963802       0.175886496270504       0.676379828191405
   Al             0.575001399334349       0.575128194657294       0.073388112453059
   Al             0.823620086898132       0.823098772130745       0.324113619616374
   Al             0.924998576197271       0.924871878311316       0.426611904847991
   Al             0.676379910433679       0.676901281479605       0.175886329935564
   Al             0.574004348024319       0.574004178900405       0.574004236857321
   Al             0.823676679399412       0.823676608495912       0.823676734260652
   Al             0.925995607031485       0.925995826065116       0.925995733540380
   Al             0.676323299222133       0.676323397443651       0.676323252912147
%ENDBLOCK positions_frac

FIX_COM : true

%BLOCK species_pot
   Li      1|1.0|14|16|18|10U:20(qc=7)
   O       2|1.1|17|20|23|20:21(qc=8)
   Al      3|2.2|2.2|1.4|4|5|5|30:31:32U2U2
%ENDBLOCK species_pot

SYMMETRY_TOL :     0.001000

%BLOCK symmetry_ops
# Symm. op. 1       E
          1.000000000000000       0.000000000000000       0.000000000000000
          0.000000000000000       1.000000000000000       0.000000000000000
          0.000000000000000       0.000000000000000       1.000000000000000
          0.000000000000000       0.000000000000000       0.000000000000000
%ENDBLOCK symmetry_ops

kpoint_mp_grid :    2   2   2

