#######################################################
#CASTEP cell file: /local/scratch/jks/Al2O3/convergence/supercell/al2o3_xc-PBESOL_c-0700_k-2x2x2_sc-2x2x2_site-0_geom.cell
#Created using the Atomic Simulation Environment (ASE)#
#######################################################

%BLOCK LATTICE_CART
 4.772366  2.755331  8.675108
-4.772361  2.755325  8.675107
-0.000002 -5.510653  8.675106
%ENDBLOCK LATTICE_CART

%BLOCK POSITIONS_ABS
O -0.925345  1.377663  7.590719
O  1.655765  0.112544  7.590719
O -0.730417 -1.490206  7.590718
O -1.655764 -0.112543  5.421942
O  0.730417  1.490211  5.421942
O  0.925347 -1.377662  5.421942
Al  0.000000  0.000000  1.924859
Al  0.000001  0.000001  8.431189
Al  0.000001  0.000001 11.087802
Al  0.000001  0.000000  4.581472
O -0.925346 -1.377663 11.928272
O  1.655764 -2.642782 11.928272
O -0.730419 -4.245533 11.928272
O -1.655765 -2.867870  9.759495
O  0.730415 -1.265115  9.759495
O  0.925346 -4.132989  9.759495
Al -0.000001 -2.755326  6.262412
Al -0.000000 -2.755326 12.768742
Al  0.000000 -2.755326 15.425355
Al -0.000001 -2.755326  8.919025
O -3.311526  2.755326 11.928272
O -0.730415  1.490207 11.928272
O -3.116598 -0.112544 11.928272
O -4.041944  1.265119  9.759495
O -1.655764  2.867873  9.759496
O -1.460834 -0.000000  9.759495
Al -2.386180  1.377662  6.262412
Al -2.386179  1.377663 12.768743
Al -2.386179  1.377663 15.425355
Al -2.386180  1.377663  8.919025
O -3.311527 -0.000001 16.265826
O -0.730416 -1.265120 16.265826
O -3.116599 -2.867870 16.265825
O -4.041945 -1.490208 14.097048
O -1.655765  0.112547 14.097049
O -1.460835 -2.755327 14.097049
Al -2.386181 -1.377664 10.599965
Al -2.386181 -1.377664 17.106296
Al -2.386180 -1.377663 19.762909
Al -2.386181 -1.377664 13.256578
O  1.460838  2.755329 11.928273
O  4.041948  1.490210 11.928273
O  1.655766 -0.112541 11.928272
O  0.730419  1.265122  9.759496
O  3.116600  2.867876  9.759496
O  3.311530  0.000003  9.759496
Al  2.386183  1.377665  6.262413
Al  2.386184  1.377666 12.768743
Al  2.386184  1.377666 15.425356
Al  2.386184  1.377666  8.919026
O  1.460837  0.000002 16.265826
O  4.041947 -1.265117 16.265826
O  1.655764 -2.867867 16.265826
O  0.730418 -1.490205 14.097049
O  3.116598  0.112550 14.097049
O  3.311529 -2.755324 14.097049
Al  2.386182 -1.377661 10.599966
Al  2.386183 -1.377661 17.106296
Al  2.386183 -1.377660 19.762909
Al  2.386182 -1.377661 13.256579
O -0.925343  4.132991 16.265826
O  1.655768  2.867872 16.265826
O -0.730415  1.265122 16.265826
O -1.655761  2.642784 14.097049
O  0.730419  4.245539 14.097050
O  0.925349  1.377665 14.097049
Al  0.000003  2.755328 10.599966
Al  0.000004  2.755328 17.106297
Al  0.000004  2.755328 19.762909
Al  0.000003  2.755328 13.256579
O -0.925344  1.377664 20.603380
O  1.655767  0.112545 20.603380
O -0.730416 -1.490205 20.603379
O -1.655762 -0.112542 18.434602
O  0.730418  1.490212 18.434603
O  0.925348 -1.377661 18.434603
Al  0.000002  0.000001 14.937519
Al  0.000002  0.000002 21.443850
Al  0.000003  0.000002 24.100463
Al  0.000002  0.000001 17.594132
Li  0.000001  0.000001  6.506330
%ENDBLOCK POSITIONS_ABS

FIX_ALL_CELL: TRUE
KPOINT_MP_GRID: 2 2 2
