# CELL file written 11:46:03 (GMT-0.0) 15th November 2021 from run al2o3_xc-PBESOL_c-0700_k-1x1x1_sc-3x3x3_site-0_geom

%BLOCK lattice_cart
   ANG
       7.15854900000000        4.13299600000000        13.0126620000000    
      -7.15854100000000        4.13298700000000        13.0126610000000    
     -0.400000000000000E-05   -8.26598000000000        13.0126600000000    
%ENDBLOCK lattice_cart

%BLOCK cell_constraints
      0   0   0
      0   0   0
%ENDBLOCK cell_constraints

%BLOCK positions_frac
   Li             0.166679420915778       0.166649378178718       0.166670627152156
   O              0.187105860932560       0.310374711506629       0.086735281127241
   O              0.310376537426533       0.086733986394325       0.187106548167360
   O              0.086735498052894       0.187105371886499       0.310375440143135
   O              0.022958514567034       0.246597377774795       0.146227972536341
   O              0.246598921574861       0.146226646780402       0.022957716614699
   O              0.146227398730267       0.022956423396448       0.246598857279128
   O              0.185326118279668       0.315546452283185       0.417884555517783
   O              0.315186282812989       0.083193988603225       0.519020717898971
   O              0.083474018936102       0.185251343341228       0.647701181699229
   O              0.019149461470160       0.250268731692095       0.480441543717396
   O              0.250068566867788       0.149414296152697       0.354556937531872
   O              0.148073072784171       0.018362753200507       0.583210821767938
   O              0.185259938208856       0.314970830560701       0.750122413511932
   O              0.314183679315362       0.083064925498361       0.852891542967029
   O              0.083264560933043       0.183919565241647       0.978776161449545
   O              0.018147001859797       0.250139711251449       0.814312694821904
   O              0.249859216773338       0.148082397309738       0.685632160329550
   O              0.148007130305389       0.017787394444371       0.915448760571399
   O              0.185251232996412       0.647701461055282       0.083473991862253
   O              0.315545605938700       0.417885260071303       0.185326156798040
   O              0.083193645089941       0.519020853047456       0.315186250838572
   O              0.018362799486304       0.583210757701572       0.148073036579777
   O              0.250268407347143       0.480442162452151       0.019149253550337
   O              0.149413640477170       0.354557479082344       0.250068533073993
   O              0.185312472305588       0.648593981455379       0.416424406987737
   O              0.314781472826961       0.416865353648068       0.518708096822519
   O              0.083258889825041       0.518776875771805       0.648192722849992
   O              0.018544739242858       0.583508117785928       0.481665974988904
   O              0.250096441828377       0.481704104772219       0.352163373015855
   O              0.148157310355726       0.351998683948719       0.583817804605832
   O              0.185218511500163       0.648056074668074       0.750004506499985
   O              0.314589497658530       0.416858890935001       0.852008246722156
   O              0.084058117135382       0.517145228932238       0.981888890564789
   O              0.018704404983513       0.583083122629813       0.815106287113217
   O              0.250037985435284       0.481207643558919       0.685548932928071
   O              0.148317887677354       0.351133241849577       0.917516467040325
   O              0.183919025129019       0.978776754130961       0.083264746770145
   O              0.314970352114785       0.750122736229640       0.185260198947415
   O              0.083064657942911       0.852891392500950       0.314184059218006
   O              0.017787596708028       0.915448472569568       0.148007293189962
   O              0.250139528817571       0.814312946880535       0.018147231281109
   O              0.148082000497712       0.685632281900911       0.249859325103197
   O              0.185015173699957       0.982199782402601       0.415816703601505
   O              0.314628564345309       0.750250341224402       0.518226757170087
   O              0.083295082292852       0.852125702848949       0.647784084406309
   O              0.018743334371619       0.916474634379250       0.481324766230475
   O              0.249275208386713       0.816187778181319       0.351444301686191
   O              0.148114358165328       0.685277248251190       0.583328736874337
   O              0.185175972827754       0.981334984510686       0.749515538133423
   O              0.314788594124476       0.749825507870295       0.851667430621286
   O              0.083236827787380       0.851629660624089       0.981170067885336
   O              0.018551735260310       0.916468176901773       0.814625077483772
   O              0.250074278164624       0.814556617083845       0.685140542059554
   O              0.148020608348843       0.684739541878764       0.916908872558658
   O              0.519020381227052       0.315186665735414       0.083193807526716
   O              0.647701377829278       0.083474147553112       0.185251322355640
   O              0.417884751904788       0.185326664209365       0.315545997565394
   O              0.354556856625869       0.250068855853294       0.149413927267239
   O              0.583210880525359       0.148073051388352       0.018362722156767
   O              0.480441883095006       0.019149459367571       0.250268383903514
   O              0.518708045122810       0.314781517219792       0.416865068716894
   O              0.648192912761726       0.083259060771374       0.518776703567624
   O              0.416424451165896       0.185312643538578       0.648593850784677
   O              0.352163613488406       0.250096721573256       0.481703738557619
   O              0.583817917108598       0.148157476764432       0.351998746338857
   O              0.481666279126779       0.018544934985965       0.583507717021377
   O              0.518226925763607       0.314628958320494       0.750250001558227
   O              0.647784238410386       0.083295103428978       0.852125571941523
   O              0.415816763833701       0.185014964116181       0.982199880167671
   O              0.351444067104986       0.249275278764844       0.816187876983499
   O              0.583328712602779       0.148114494819932       0.685277073557192
   O              0.481325092716271       0.018743304634111       0.916474290178398
   O              0.518776506359069       0.648193124345328       0.083259059270619
   O              0.648593921288375       0.416424710618324       0.185312458681769
   O              0.416865124635025       0.518708354468860       0.314781287530671
   O              0.351998694790152       0.583818132815871       0.148157249101805
   O              0.583507570183597       0.481666576218029       0.018544892225696
   O              0.481703825868933       0.352163899785489       0.250096360028349
   O              0.518570673877487       0.648121317108666       0.416608163865739
   O              0.648121399960040       0.416608386227687       0.518570559359256
   O              0.416608220339163       0.518571203678769       0.648121028781281
   O              0.351828866144101       0.583474112895137       0.481415095714011
   O              0.583473948885442       0.481415302429015       0.351828867177044
   O              0.481415214131594       0.351829297244581       0.583473794390797
   O              0.518612350665805       0.648019644830099       0.749943968123958
   O              0.647949913743940       0.416790021938283       0.851867606349558
   O              0.416652542766759       0.518893839839708       0.981380823390814
   O              0.351895259751682       0.583126274739244       0.814928773178393
   O              0.583343628001583       0.481332153811135       0.685180082208191
   O              0.481182696494376       0.351789812501890       0.916908082636357
   O              0.517145310347249       0.981888546093183       0.084058081330823
   O              0.648056048950196       0.750004453254295       0.185218571154487
   O              0.416858808259308       0.852008129647011       0.314589748100721
   O              0.351133115888419       0.917516574809603       0.148318193521808
   O              0.583083072847440       0.815106139563434       0.018704493983607
   O              0.481207226547878       0.685549254962434       0.250038026099091
   O              0.518893280120348       0.981380882781161       0.416652886355020
   O              0.648019624304220       0.749944007682189       0.518612458521681
   O              0.416789805378068       0.851867832911285       0.647950213584014
   O              0.351789400896496       0.916908243712901       0.481182898015201
   O              0.583126034280186       0.814928729125631       0.351895495635983
   O              0.481331935666350       0.685180315157132       0.583343614822069
   O              0.518404335944081       0.981437819496770       0.750207230347411
   O              0.648153356221210       0.749989708997431       0.852001197705322
   O              0.416424970748458       0.852150745175463       0.981543951070161
   O              0.351952600890570       0.916680631999752       0.814440262358685
   O              0.583389477051504       0.814721096037351       0.685313689844643
   O              0.481465688453073       0.685383711641097       0.916543441284439
   O              0.852891525579961       0.314184029308416       0.083064775490564
   O              0.978776108697483       0.083264808864025       0.183919341026774
   O              0.750122409239365       0.185260408464389       0.314970497007241
   O              0.685632212371571       0.249859404387659       0.148082180352391
   O              0.915448604809129       0.148007108721862       0.017787338190074
   O              0.814312991495340       0.018147117158882       0.250139509845982
   O              0.852008514128996       0.314589878690267       0.416858265896088
   O              0.981888807296386       0.084058161231723       0.517145198590122
   O              0.750004555785997       0.185218723532865       0.648055755623253
   O              0.685548933521037       0.250038255492637       0.481207344531442
   O              0.917516281967923       0.148318187219241       0.351133321853328
   O              0.815106200241184       0.018704318790924       0.583083043583077
   O              0.851667228713523       0.314788866657093       0.749825446651599
   O              0.981169666192990       0.083237006280615       0.851629584761252
   O              0.749515349780419       0.185176269201335       0.981334652992860
   O              0.685140431058945       0.250074426038935       0.814556387521188
   O              0.916908808153766       0.148020896580104       0.684739128770450
   O              0.814625158965176       0.018552015816538       0.916468060855894
   O              0.852125894269212       0.647784028106268       0.083294997605693
   O              0.982199849671001       0.415817043659699       0.185014919736845
   O              0.750250187587556       0.518227083273726       0.314628414769521
   O              0.685277175160285       0.583328822201584       0.148114453760904
   O              0.916474831017078       0.481324764677349       0.018743435664412
   O              0.816188077559401       0.351444526976290       0.249274800535969
   O              0.851867748313164       0.647950030598856       0.416789802929442
   O              0.981380691734285       0.416653030832467       0.518893167132141
   O              0.749943817808721       0.518612608257605       0.648019595299204
   O              0.685180017150723       0.583343705918596       0.481331901557309
   O              0.916908167717704       0.481182857000257       0.351789318592155
   O              0.814928830777859       0.351895800885387       0.583125847025246
   O              0.852001394175645       0.648153216899744       0.749989571875479
   O              0.981543699007268       0.416425401542862       0.852150196378468
   O              0.750207179914062       0.518404736491625       0.981437781667601
   O              0.685313793415532       0.583389567490252       0.814720959489873
   O              0.916543464896208       0.481465942606371       0.685383098968303
   O              0.814440069583440       0.351952810815350       0.916680471006668
   O              0.851629659127115       0.981169772604370       0.083236934222288
   O              0.981334570078757       0.749515504052555       0.185176146499301
   O              0.749825607061051       0.851667145528034       0.314788562827776
   O              0.684739490850940       0.916908639232121       0.148020761723868
   O              0.916468131668804       0.814625110817384       0.018551932560562
   O              0.814556664042209       0.685140329512073       0.250074181758274
   O              0.852150417223892       0.981543784446702       0.416425107862968
   O              0.981437894972358       0.750207289679927       0.518404357434141
   O              0.749989622592403       0.852001350819725       0.648153006266989
   O              0.685383484684791       0.916543671488369       0.481465690343248
   O              0.916680607900991       0.814440085384207       0.351952548791087
   O              0.814721051827423       0.685314063630845       0.583389338865569
   O              0.851917986376033       0.981504052779104       0.749859191015742
   O              0.981504054376655       0.749859237892966       0.851917962954400
   O              0.749859329720324       0.851917895147911       0.981504110012915
   O              0.685211883644945       0.916724942980222       0.814762370647223
   O              0.916724926723405       0.814762197367255       0.685211819469008
   O              0.814762489361093       0.685211869284187       0.916724976432529
   Al             0.046448604348995       0.046448569424513       0.046448872560465
   Al             0.221738301457208       0.221740413580910       0.221738913737937
   Al             0.286884612069470       0.286884983231841       0.286884730286432
   Al             0.111592966121709       0.111595313714516       0.111594028770152
   Al             0.048507270888538       0.048111001817839       0.384006380204918
   Al             0.216286047691486       0.215668503788804       0.550220653802955
   Al             0.284050949738235       0.284386443687379       0.617411283174779
   Al             0.117299485819107       0.117009205843050       0.451645631319329
   Al             0.049282158651452       0.048947206005822       0.715921912226813
   Al             0.216033541625702       0.216324393360848       0.881687397278828
   Al             0.284825091035969       0.285222417596761       0.949327492572880
   Al             0.117047041448672       0.117665238678728       0.783112646888484
   Al             0.048111357712213       0.384004853933340       0.048508521149281
   Al             0.215667931670461       0.550221062288639       0.216286296611689
   Al             0.284386017917992       0.617411729947312       0.284050900425767
   Al             0.117008772628718       0.451646023014446       0.117299359752446
   Al             0.048825511699005       0.383646757094837       0.383681721086284
   Al             0.215924018113426       0.549390566040993       0.549344780682137
   Al             0.284029156916006       0.617398550589628       0.617408740427701
   Al             0.117383672207000       0.451231260231507       0.451433956780293
   Al             0.049041619553209       0.382849296811282       0.715956635022388
   Al             0.216244631461595       0.549605067541846       0.882327569701164
   Al             0.284052114055428       0.617481240137119       0.950646607086967
   Al             0.117318789960835       0.450916799217868       0.783859473717046
   Al             0.048946967639775       0.715921920011047       0.049282587412065
   Al             0.216323967922158       0.881687466113289       0.216033737490854
   Al             0.285222893055972       0.949325883741062       0.284826264616128
   Al             0.117665030503480       0.783112723300725       0.117047237621213
   Al             0.049280837267836       0.715852547415374       0.382686723928595
   Al             0.216014162836130       0.882416740306638       0.549473765833942
   Al             0.284291481819358       0.950484425181941       0.617376560310361
   Al             0.117088222006792       0.783728496861416       0.451005654459346
   Al             0.049303717034047       0.715934984212566       0.715924318634341
   Al             0.215949404832545       0.882102524771819       0.881899428515745
   Al             0.284507392942140       0.949687019091072       0.949651789612309
   Al             0.117408894304184       0.783943027415295       0.783988331512159
   Al             0.384007121798680       0.048507032089777       0.048110298441096
   Al             0.550220843749555       0.216286383023707       0.215668191109856
   Al             0.617411432636207       0.284051221224138       0.284386073848979
   Al             0.451645923768269       0.117299635898027       0.117008845931856
   Al             0.383681743642597       0.048825868600078       0.383646410631487
   Al             0.549344961130884       0.215924288979660       0.549390211594414
   Al             0.617408976666231       0.284029442362226       0.617398102507083
   Al             0.451434271776821       0.117384128990765       0.451230686354388
   Al             0.382686805786115       0.049280898457655       0.715852361696443
   Al             0.549473847920521       0.216014296191951       0.882416487550078
   Al             0.617376295616250       0.284291670949631       0.950484263279577
   Al             0.451005763526358       0.117088449304597       0.783728211059798
   Al             0.383646326730550       0.383682110923667       0.048825695551757
   Al             0.549390322327909       0.549345044509809       0.215924158229062
   Al             0.617398344269747       0.617408947565035       0.284029190147132
   Al             0.451230601814817       0.451434656250007       0.117383869238629
   Al             0.382868720351443       0.382869032386617       0.382868577314693
   Al             0.549291190634753       0.549291141891045       0.549290694741770
   Al             0.617370680279890       0.617370675677666       0.617370524488923
   Al             0.450782230831294       0.450782494275907       0.450782052719161
   Al             0.382830501087019       0.382756255316040       0.715643749626431
   Al             0.549455865884986       0.549492337199476       0.882380879708961
   Al             0.617517719079170       0.617445176784032       0.950564223664810
   Al             0.450940585043517       0.450799836101336       0.783885438669601
   Al             0.382849057198818       0.715957046220232       0.049041753799934
   Al             0.549605085170666       0.882327240586198       0.216244924483318
   Al             0.617481031725375       0.950646418887578       0.284052431607462
   Al             0.450916478415536       0.783859690902139       0.117318968544047
   Al             0.382756180232044       0.715643696182006       0.382830492522790
   Al             0.549492403711584       0.882380900892136       0.549455766352298
   Al             0.617444863998930       0.950564446188561       0.617517657843869
   Al             0.450799470791506       0.783885708651914       0.450940591971498
   Al             0.382769108356236       0.715815558297238       0.715888533625014
   Al             0.549447680433102       0.882392551835716       0.882533781437839
   Al             0.617689622927252       0.950502543664631       0.950576963058162
   Al             0.450952586659455       0.783877705322309       0.783840981046062
   Al             0.715922133834911       0.049282157330176       0.048947240468729
   Al             0.881687398464664       0.216033815833400       0.216324430365314
   Al             0.949328042334411       0.284825363730966       0.285221606535157
   Al             0.783112702149234       0.117047105976172       0.117665214243371
   Al             0.715957145624919       0.049041818201265       0.382848955475409
   Al             0.882327433540562       0.216245134396703       0.549604616277359
   Al             0.950646444224750       0.284052696386128       0.617480768999676
   Al             0.783859541450558       0.117319015573433       0.450916565235353
   Al             0.715924458803147       0.049303846066741       0.715934728036871
   Al             0.881899015013686       0.215949519220546       0.882102639832720
   Al             0.949651446621452       0.284507783867118       0.949686803725611
   Al             0.783988479545795       0.117409061460854       0.783942715495827
   Al             0.715852363013429       0.382687055815686       0.049280894214583
   Al             0.882416676035790       0.549473704732785       0.216014241661499
   Al             0.950484080925972       0.617376554171322       0.284291600497773
   Al             0.783728470919798       0.451006036202765       0.117088225334367
   Al             0.715644161401770       0.382830519951857       0.382755866072637
   Al             0.882380762020296       0.549456038147072       0.549492205419813
   Al             0.950564185466475       0.617518129782713       0.617444589175118
   Al             0.783885748496145       0.450940761529016       0.450799166712397
   Al             0.715888632195923       0.382769084455841       0.715815412879242
   Al             0.882533745627715       0.549447724011289       0.882392602583482
   Al             0.950577089374000       0.617689230617065       0.950502789978420
   Al             0.783841108905863       0.450952726293925       0.783877373075747
   Al             0.715935019617123       0.715924255048460       0.049303905622536
   Al             0.882102621513107       0.881899008721170       0.215949589786649
   Al             0.949686787158739       0.949651497428082       0.284507668281593
   Al             0.783943031268789       0.783988258041640       0.117409019463174
   Al             0.715815692934548       0.715888399925370       0.382768964620898
   Al             0.882392592281352       0.882533686615717       0.549447505273714
   Al             0.950502579007607       0.950577166005455       0.617689228743274
   Al             0.783877569480481       0.783841312048139       0.450952363481426
   Al             0.715962816606818       0.715962886888743       0.715962508950683
   Al             0.882550980817140       0.882550979195186       0.882551030993837
   Al             0.950464501879051       0.950464589065930       0.950464690217568
   Al             0.784042280994200       0.784042244922429       0.784042221561737
%ENDBLOCK positions_frac

FIX_COM : true

%BLOCK species_pot
   Li      1|1.0|14|16|18|10U:20(qc=7)
   O       2|1.1|17|20|23|20:21(qc=8)
   Al      3|2.2|2.2|1.4|4|5|5|30:31:32U2U2
%ENDBLOCK species_pot

SYMMETRY_TOL :     0.001000

%BLOCK symmetry_ops
# Symm. op. 1       E
          1.000000000000000       0.000000000000000       0.000000000000000
          0.000000000000000       1.000000000000000       0.000000000000000
          0.000000000000000       0.000000000000000       1.000000000000000
          0.000000000000000       0.000000000000000       0.000000000000000
%ENDBLOCK symmetry_ops

kpoint_mp_grid :    1   1   1

%BLOCK SPECIES_Q
Barn
       Li     0.0326
%ENDBLOCK SPECIES_Q
