#######################################################
#CASTEP cell file: /local/scratch/jks/Al2O3/convergence/supercell/al2o3_xc-PBESOL_c-0700_k-2x2x2_sc-2x2x2_site-0_nmr.cell
#Created using the Atomic Simulation Environment (ASE)#
#######################################################

%BLOCK LATTICE_CART
 4.772366  2.755331  8.675108
-4.772361  2.755325  8.675107
-0.000002 -5.510653  8.675106
%ENDBLOCK LATTICE_CART

%BLOCK POSITIONS_ABS
Li  0.000001  0.000001  6.506330
O -0.883792  1.338119  7.603081
O  1.600742  0.096331  7.603081
O -0.716947 -1.434453  7.603089
O -1.600741 -0.096329  5.409580
O  0.716949  1.434449  5.409580
O  0.883794 -1.338118  5.409580
O -0.935650 -1.379878 11.957863
O  1.658239 -2.653138 11.938855
O -0.718576 -4.230721 11.874277
O -1.658239 -2.857514  9.748911
O  0.718575 -1.279930  9.813489
O  0.935649 -4.130774  9.729904
O -3.304620  2.737665 11.874278
O -0.727182  1.500238 11.957863
O -3.126804 -0.109508 11.938855
O -4.045182  1.255086  9.729896
O -1.645556  2.864835  9.748912
O -1.467739  0.017662  9.813489
O -3.319220  0.010886 16.256534
O -0.732366 -1.258808 16.265357
O -3.103616 -2.875600 16.258989
O -4.039996 -1.496518 14.097517
O -1.668746  0.120273 14.103885
O -1.453142 -2.766213 14.106339
O  1.468569  2.762650 11.938856
O  4.023200  1.493060 11.874279
O  1.662836 -0.120356 11.957863
O  0.749167  1.262272  9.813490
O  3.109532  2.875688  9.729905
O  3.303799 -0.007318  9.748912
O  1.456346 -0.004841 16.265357
O  4.042145 -1.250005 16.258999
O  1.650179 -2.879975 16.256526
O  0.730215 -1.505313 14.103885
O  3.122182  0.124652 14.106340
O  3.316015 -2.750482 14.097509
O -0.938534  4.125605 16.258990
O  1.669042  2.869092 16.256535
O -0.723979  1.263658 16.265366
O -1.669040  2.641568 14.106349
O  0.723986  4.247000 14.097510
O  0.938535  1.385050 14.103877
O -0.926661  1.380583 20.604707
O  1.658952  0.112228 20.604707
O -0.732284 -1.492804 20.604706
O -1.658948 -0.112223 18.433275
O  0.732289  1.492808 18.433275
O  0.926666 -1.380579 18.433275
Al  0.000000  0.000000  1.819014
Al  0.000001  0.000001  8.654747
Al -0.000003  0.000004 11.193655
Al  0.000001  0.000001  4.357914
Al  0.006175 -2.772773  6.251334
Al  0.000869 -2.756461 12.771544
Al -0.006175 -2.737878 15.436433
Al -0.000869 -2.754191  8.916222
Al -2.404377  1.381038  6.251334
Al -2.387597  1.377479 12.771545
Al -2.367982  1.374289 15.436433
Al -2.384763  1.377848  8.916223
Al -2.393879 -1.382808 10.614140
Al -2.383828 -1.373434 17.097178
Al -2.378482 -1.372519 19.748733
Al -2.388539 -1.381896 13.265687
Al  2.398205  1.391737  6.251335
Al  2.386733  1.378986 12.771545
Al  2.374163  1.363595 15.436434
Al  2.385635  1.376346  8.916223
Al  2.394486 -1.381755 10.614141
Al  2.381339 -1.377734 17.097187
Al  2.377879 -1.373565 19.748734
Al  2.391026 -1.377586 13.265687
Al -0.000603  2.764567 10.614141
Al  0.002490  2.751171 17.097188
Al  0.000610  2.746091 19.748734
Al -0.002483  2.759486 13.265688
Al  0.000002  0.000002 14.938638
Al  0.000002  0.000002 21.436458
Al  0.000003  0.000003 24.099343
Al  0.000002  0.000002 17.601523
%ENDBLOCK POSITIONS_ABS

FIX_ALL_CELL: TRUE
KPOINT_MP_GRID: 2 2 2


%BLOCK SPECIES_Q
Barn
       Li     0.0326
%ENDBLOCK SPECIES_Q
