#######################################################
#CASTEP cell file: /local/scratch/jks/Al2O3/convergence/supercell/al2o3_xc-PBESOL_c-0700_k-1x1x1_sc-3x3x3_site-0_geom.cell
#Created using the Atomic Simulation Environment (ASE)#
#######################################################

%BLOCK LATTICE_CART
 7.158549  4.132996 13.012662
-7.158541  4.132987 13.012661
-0.000004 -8.265980 13.012660
%ENDBLOCK LATTICE_CART

%BLOCK POSITIONS_ABS
O -0.925345  1.377663  7.590719
O  1.655765  0.112544  7.590719
O -0.730417 -1.490206  7.590718
O -1.655764 -0.112543  5.421942
O  0.730417  1.490211  5.421942
O  0.925347 -1.377662  5.421942
Al  0.000000  0.000000  1.924859
Al  0.000001  0.000001  8.431189
Al  0.000001  0.000001 11.087802
Al  0.000001  0.000000  4.581472
O -0.925346 -1.377663 11.928272
O  1.655764 -2.642782 11.928272
O -0.730419 -4.245533 11.928272
O -1.655765 -2.867870  9.759495
O  0.730415 -1.265115  9.759495
O  0.925346 -4.132989  9.759495
Al -0.000001 -2.755326  6.262412
Al -0.000000 -2.755326 12.768742
Al  0.000000 -2.755326 15.425355
Al -0.000001 -2.755326  8.919025
O -0.925348 -4.132990 16.265825
O  1.655763 -5.398109 16.265825
O -0.730420 -7.000859 16.265825
O -1.655766 -5.623197 14.097048
O  0.730414 -4.020442 14.097049
O  0.925344 -6.888316 14.097048
Al -0.000002 -5.510653 10.599965
Al -0.000001 -5.510653 17.106296
Al -0.000001 -5.510652 19.762908
Al -0.000002 -5.510653 13.256578
O -3.311526  2.755326 11.928272
O -0.730415  1.490207 11.928272
O -3.116598 -0.112544 11.928272
O -4.041944  1.265119  9.759495
O -1.655764  2.867873  9.759496
O -1.460834 -0.000000  9.759495
Al -2.386180  1.377662  6.262412
Al -2.386179  1.377663 12.768743
Al -2.386179  1.377663 15.425355
Al -2.386180  1.377663  8.919025
O -3.311527 -0.000001 16.265826
O -0.730416 -1.265120 16.265826
O -3.116599 -2.867870 16.265825
O -4.041945 -1.490208 14.097048
O -1.655765  0.112547 14.097049
O -1.460835 -2.755327 14.097049
Al -2.386181 -1.377664 10.599965
Al -2.386181 -1.377664 17.106296
Al -2.386180 -1.377663 19.762909
Al -2.386181 -1.377664 13.256578
O -3.311528 -2.755327 20.603379
O -0.730417 -4.020447 20.603379
O -3.116600 -5.623197 20.603378
O -4.041947 -4.245534 18.434602
O -1.655766 -2.642780 18.434602
O -1.460836 -5.510653 18.434602
Al -2.386183 -4.132991 14.937519
Al -2.386182 -4.132990 21.443849
Al -2.386182 -4.132990 24.100462
Al -2.386182 -4.132991 17.594131
O -5.697706  4.132988 16.265826
O -3.116595  2.867869 16.265826
O -5.502778  1.265119 16.265825
O -6.428125  2.642781 14.097049
O -4.041944  4.245536 14.097049
O -3.847014  1.377662 14.097049
Al -4.772361  2.755325 10.599966
Al -4.772360  2.755325 17.106296
Al -4.772360  2.755325 19.762909
Al -4.772360  2.755325 13.256579
O -5.697707  1.377661 20.603379
O -3.116597  0.112542 20.603379
O -5.502779 -1.490208 20.603379
O -6.428126 -0.112545 18.434602
O -4.041945  1.490209 18.434602
O -3.847015 -1.377664 18.434602
Al -4.772362 -0.000002 14.937519
Al -4.772361 -0.000001 21.443849
Al -4.772361 -0.000001 24.100462
Al -4.772361 -0.000002 17.594132
O -5.697708 -1.377665 24.940932
O -3.116598 -2.642784 24.940932
O -5.502781 -4.245535 24.940932
O -6.428127 -2.867872 22.772155
O -4.041947 -1.265117 22.772156
O -3.847016 -4.132991 22.772155
Al -4.772363 -2.755328 19.275072
Al -4.772362 -2.755328 25.781403
Al -4.772362 -2.755328 28.438015
Al -4.772363 -2.755328 21.931685
O  1.460838  2.755329 11.928273
O  4.041948  1.490210 11.928273
O  1.655766 -0.112541 11.928272
O  0.730419  1.265122  9.759496
O  3.116600  2.867876  9.759496
O  3.311530  0.000003  9.759496
Al  2.386183  1.377665  6.262413
Al  2.386184  1.377666 12.768743
Al  2.386184  1.377666 15.425356
Al  2.386184  1.377666  8.919026
O  1.460837  0.000002 16.265826
O  4.041947 -1.265117 16.265826
O  1.655764 -2.867867 16.265826
O  0.730418 -1.490205 14.097049
O  3.116598  0.112550 14.097049
O  3.311529 -2.755324 14.097049
Al  2.386182 -1.377661 10.599966
Al  2.386183 -1.377661 17.106296
Al  2.386183 -1.377660 19.762909
Al  2.386182 -1.377661 13.256579
O  1.460835 -2.755324 20.603379
O  4.041946 -4.020444 20.603379
O  1.655763 -5.623194 20.603379
O  0.730417 -4.245531 18.434602
O  3.116597 -2.642777 18.434603
O  3.311527 -5.510650 18.434602
Al  2.386181 -4.132988 14.937519
Al  2.386182 -4.132987 21.443850
Al  2.386182 -4.132987 24.100462
Al  2.386181 -4.132988 17.594132
O -0.925343  4.132991 16.265826
O  1.655768  2.867872 16.265826
O -0.730415  1.265122 16.265826
O -1.655761  2.642784 14.097049
O  0.730419  4.245539 14.097050
O  0.925349  1.377665 14.097049
Al  0.000003  2.755328 10.599966
Al  0.000004  2.755328 17.106297
Al  0.000004  2.755328 19.762909
Al  0.000003  2.755328 13.256579
O -0.925344  1.377664 20.603380
O  1.655767  0.112545 20.603380
O -0.730416 -1.490205 20.603379
O -1.655762 -0.112542 18.434602
O  0.730418  1.490212 18.434603
O  0.925348 -1.377661 18.434603
Al  0.000002  0.000001 14.937519
Al  0.000002  0.000002 21.443850
Al  0.000003  0.000002 24.100463
Al  0.000002  0.000001 17.594132
O -0.925345 -1.377662 24.940933
O  1.655766 -2.642781 24.940933
O -0.730417 -4.245532 24.940932
O -1.655764 -2.867869 22.772156
O  0.730417 -1.265114 22.772156
O  0.925347 -4.132988 22.772156
Al  0.000001 -2.755325 19.275073
Al  0.000001 -2.755325 25.781403
Al  0.000002 -2.755325 28.438016
Al  0.000001 -2.755325 21.931685
O -3.311523  5.510653 20.603380
O -0.730412  4.245534 20.603380
O -3.116595  2.642784 20.603379
O -4.041942  4.020447 18.434603
O -1.655761  5.623201 18.434603
O -1.460831  2.755327 18.434603
Al -2.386177  4.132990 14.937520
Al -2.386177  4.132991 21.443850
Al -2.386176  4.132991 24.100463
Al -2.386177  4.132990 17.594133
O -3.311524  2.755327 24.940933
O -0.730414  1.490208 24.940933
O -3.116596 -0.112543 24.940933
O -4.041943  1.265120 22.772156
O -1.655762  2.867874 22.772156
O -1.460832  0.000001 22.772156
Al -2.386179  1.377663 19.275073
Al -2.386178  1.377664 25.781403
Al -2.386178  1.377664 28.438016
Al -2.386178  1.377664 21.931686
O -3.311525  0.000000 29.278486
O -0.730415 -1.265119 29.278486
O -3.116598 -2.867869 29.278486
O -4.041944 -1.490207 27.109709
O -1.655764  0.112548 27.109710
O -1.460833 -2.755326 27.109709
Al -2.386180 -1.377663 23.612626
Al -2.386179 -1.377663 30.118957
Al -2.386179 -1.377662 32.775569
Al -2.386180 -1.377663 26.269239
O  3.847021  4.132994 16.265827
O  6.428132  2.867875 16.265827
O  4.041949  1.265125 16.265826
O  3.116602  2.642787 14.097050
O  5.502783  4.245542 14.097050
O  5.697713  1.377668 14.097050
Al  4.772366  2.755331 10.599967
Al  4.772367  2.755331 17.106297
Al  4.772367  2.755331 19.762910
Al  4.772367  2.755331 13.256580
O  3.847020  1.377667 20.603380
O  6.428130  0.112548 20.603380
O  4.041948 -1.490202 20.603380
O  3.116601 -0.112539 18.434603
O  5.502782  1.490215 18.434603
O  5.697712 -1.377658 18.434603
Al  4.772365  0.000004 14.937520
Al  4.772366  0.000005 21.443850
Al  4.772366  0.000005 24.100463
Al  4.772366  0.000004 17.594133
O  3.847019 -1.377659 24.940933
O  6.428129 -2.642778 24.940933
O  4.041946 -4.245529 24.940933
O  3.116600 -2.867866 22.772156
O  5.502780 -1.265111 22.772157
O  5.697711 -4.132985 22.772156
Al  4.772364 -2.755322 19.275073
Al  4.772365 -2.755322 25.781404
Al  4.772365 -2.755322 28.438016
Al  4.772364 -2.755322 21.931686
O  1.460841  5.510656 20.603380
O  4.041951  4.245537 20.603380
O  1.655768  2.642787 20.603380
O  0.730422  4.020450 18.434603
O  3.116602  5.623204 18.434604
O  3.311533  2.755330 18.434603
Al  2.386186  4.132993 14.937520
Al  2.386187  4.132994 21.443851
Al  2.386187  4.132994 24.100463
Al  2.386186  4.132993 17.594133
O  1.460839  2.755330 24.940934
O  4.041950  1.490211 24.940934
O  1.655767 -0.112540 24.940933
O  0.730421  1.265123 22.772156
O  3.116601  2.867877 22.772157
O  3.311531  0.000004 22.772157
Al  2.386185  1.377666 19.275073
Al  2.386186  1.377667 25.781404
Al  2.386186  1.377667 28.438017
Al  2.386185  1.377667 21.931686
O  1.460838  0.000003 29.278487
O  4.041949 -1.265116 29.278487
O  1.655766 -2.867866 29.278486
O  0.730420 -1.490204 27.109710
O  3.116600  0.112551 27.109710
O  3.311530 -2.755323 27.109710
Al  2.386184 -1.377660 23.612627
Al  2.386184 -1.377660 30.118957
Al  2.386185 -1.377659 32.775570
Al  2.386184 -1.377660 26.269239
O -0.925340  6.888319 24.940934
O  1.655771  5.623200 24.940934
O -0.730412  4.020449 24.940933
O -1.655758  5.398112 22.772157
O  0.730422  7.000866 22.772157
O  0.925352  4.132993 22.772157
Al  0.000006  5.510655 19.275074
Al  0.000006  5.510656 25.781404
Al  0.000007  5.510656 28.438017
Al  0.000006  5.510656 21.931687
O -0.925341  4.132992 29.278487
O  1.655770  2.867873 29.278487
O -0.730413  1.265123 29.278487
O -1.655760  2.642785 27.109710
O  0.730421  4.245540 27.109710
O  0.925351  1.377666 27.109710
Al  0.000004  2.755329 23.612627
Al  0.000005  2.755329 30.118957
Al  0.000005  2.755329 32.775570
Al  0.000005  2.755329 26.269240
O -0.925342  1.377665 33.616040
O  1.655768  0.112546 33.616040
O -0.730414 -1.490204 33.616040
O -1.655761 -0.112541 31.447263
O  0.730420  1.490213 31.447264
O  0.925350 -1.377660 31.447263
Al  0.000003  0.000002 27.950180
Al  0.000004  0.000003 34.456511
Al  0.000004  0.000003 37.113123
Al  0.000004  0.000002 30.606793
Li  0.000001  0.000001  6.506330
%ENDBLOCK POSITIONS_ABS

FIX_ALL_CELL: TRUE
KPOINT_MP_GRID: 1 1 1

