#######################################################
#CASTEP cell file: /local/scratch/jks/Al2O3/sc333/zpe/al2o3_sc-3x3x3_site-0_dir-2_disp_-0.17678.cell
#Created using the Atomic Simulation Environment (ASE)#
#######################################################

%BLOCK LATTICE_CART
 7.158549  4.132996 13.012662
-7.158541  4.132987 13.012661
-0.000004 -8.265980 13.012660
%ENDBLOCK LATTICE_CART

%BLOCK POSITIONS_ABS
Li  0.000000  0.000000  6.329541
O -0.882425  1.339134  7.602205
O  1.600959  0.094635  7.602231
O -0.718503 -1.433776  7.602192
O -1.600922 -0.094646  5.410456
O  0.718519  1.433777  5.410456
O  0.882441 -1.339150  5.410430
O -0.932185 -1.384130 11.955473
O  1.660725 -2.643715 11.937828
O -0.728577 -4.243246 11.925140
O -1.654484 -2.857823  9.757674
O  0.720544 -1.279701  9.812067
O  0.928533 -4.132931  9.754902
O -0.928543 -4.133044 16.270419
O  1.654474 -5.408160 16.267660
O -0.720546 -6.986270 16.213267
O -1.660735 -5.622268 14.087506
O  0.728574 -4.022733 14.100168
O  0.932183 -6.881857 14.069848
O -3.310466  2.752587 11.925141
O -0.732596  1.499363 11.955474
O -3.119886 -0.116374 11.937828
O -4.043488  1.262329  9.754902
O -1.647708  2.861732  9.757661
O -1.468524  0.015842  9.812067
O -3.316423  0.004372 16.270120
O -0.730772 -1.263744 16.270433
O -3.117675 -2.869743 16.268806
O -4.044313 -1.493164 14.102068
O -1.657975  0.113550 14.105243
O -1.459212 -2.758688 14.105386
O -3.313239 -2.755610 20.602685
O -0.732105 -4.019613 20.604976
O -3.100274 -5.631510 20.600239
O -4.040133 -4.250472 18.437547
O -1.654841 -2.644502 18.436273
O -1.451862 -5.519943 18.438510
O -5.690022  4.117142 16.213268
O -3.115059  2.870663 16.270420
O -5.510832  1.271256 16.267648
O -6.425936  2.633630 14.069848
O -4.038654  4.249370 14.087507
O -3.848074  1.380401 14.100168
O -5.706682  1.386951 20.599459
O -3.118410  0.117480 20.600422
O -5.503710 -1.488486 20.601709
O -6.426453 -0.113379 18.432993
O -4.058269  1.498518 18.437730
O -3.845305 -1.377390 18.435297
O -5.699338 -1.374308 24.932609
O -3.114231 -2.639820 24.935928
O -5.500576 -4.246538 24.932739
O -6.427772 -2.869248 22.767536
O -4.040875 -1.263253 22.769189
O -3.842127 -4.137360 22.767862
O  1.459151  2.760091 11.937829
O  4.039047  1.490662 11.925141
O  1.664778 -0.115226 11.955486
O  0.747984  1.263861  9.812067
O  3.114958  2.870604  9.754903
O  3.302188 -0.003903  9.757661
O  1.459815 -0.000990 16.270446
O  4.044106 -1.265113 16.268806
O  1.654418 -2.874290 16.270133
O  0.730652 -1.492616 14.105269
O  3.118700  0.115632 14.105386
O  3.315272 -2.755896 14.102068
O  1.457466 -2.759364 20.600421
O  4.040919 -4.022111 20.601710
O  1.652205 -5.635611 20.599458
O  0.731381 -4.263827 18.437730
O  3.115506 -2.641436 18.435297
O  3.311412 -5.508777 18.432980
O -0.926426  4.134859 16.268807
O  1.661996  2.869930 16.270134
O -0.729045  1.264741 16.270433
O -1.659484  2.643060 14.105386
O  0.729038  4.249067 14.102082
O  0.927320  1.379081 14.105256
O -0.927387  1.378254 20.602946
O  1.657298  0.114019 20.602946
O -0.729906 -1.492269 20.602946
O -1.658239 -0.113768 18.435271
O  0.730597  1.492966 18.435271
O  0.927648 -1.379193 18.435271
O -0.926371 -1.377343 24.939754
O  1.654770 -2.640961 24.940170
O -0.731897 -4.245468 24.944334
O -1.655277 -2.871754 22.771506
O  0.730259 -1.263387 22.770283
O  0.926265 -4.136472 22.770608
O -3.326885  5.500671 20.600240
O -0.729794  4.247153 20.602673
O -3.115030  2.643820 20.604989
O -4.054481  4.017323 18.438524
O -1.660942  5.624095 18.437549
O -1.462788  2.755383 18.436260
O -3.310737  2.756572 24.944321
O -0.729624  1.490936 24.939754
O -3.114523 -0.112591 24.940170
O -4.045427  1.266062 22.770595
O -1.659368  2.869391 22.771506
O -1.459253 -0.000727 22.770283
O -3.314647 -0.002364 29.279125
O -0.729003 -1.264111 29.280361
O -3.119163 -2.870411 29.280048
O -4.042629 -1.488894 27.106335
O -1.655998  0.113584 27.110890
O -1.459755 -2.753546 27.110486
O  3.856370  4.136904 16.267662
O  6.410559  2.869140 16.213256
O  4.043593  1.262393 16.270407
O  3.119504  2.642335 14.100169
O  5.493772  4.248231 14.069850
O  5.699392  1.372901 14.087507
O  3.847141  1.375806 20.604990
O  6.427166  0.130844 20.600240
O  4.043047 -1.491543 20.602686
O  3.117627 -0.110872 18.436260
O  5.506341  1.502628 18.438512
O  5.701081 -1.373619 18.437549
O  3.843267 -1.377083 24.935915
O  6.427895 -2.640367 24.932740
O  4.039846 -4.248623 24.932597
O  3.114440 -2.867870 22.769164
O  5.504121 -1.258689 22.767850
O  5.698724 -4.131989 22.767537
O  1.462797  5.510601 20.601711
O  4.054483  4.248665 20.599460
O  1.660951  2.641897 20.600409
O  0.729804  4.018831 18.435298
O  3.115046  5.622168 18.432995
O  3.326887  2.765317 18.437744
O  1.459761  2.753558 24.940171
O  4.042634  1.488906 24.944322
O  1.655996 -0.113584 24.939767
O  0.729001  1.264119 22.770283
O  3.119161  2.870419 22.770596
O  3.314645  0.002372 22.771519
O  1.459258  0.000722 29.280361
O  4.045432 -1.266058 29.280036
O  1.659366 -2.869383 29.279138
O  0.729629 -1.490924 27.110903
O  3.114521  0.112599 27.110474
O  3.310735 -2.756564 27.106323
O -0.927311  6.886911 24.932741
O  1.659493  5.622932 24.932611
O -0.729028  4.016917 24.935928
O -1.661994  5.396058 22.767850
O  0.729055  7.001243 22.767538
O  0.926442  4.131129 22.769177
O -0.926267  4.136480 29.280036
O  1.655282  2.871758 29.279125
O -0.730247  1.263395 29.280361
O -1.654772  2.640961 27.110487
O  0.731902  4.245472 27.106336
O  0.926369  1.377351 27.110890
O -0.927643  1.379197 33.615360
O  1.658245  0.113772 33.615360
O -0.730591 -1.492962 33.615360
O -1.657293 -0.114015 31.447685
O  0.729911  1.492273 31.447685
O  0.927392 -1.378250 31.447685
Al  0.000000  0.000000  1.813275
Al -0.000013  0.000001  8.656243
Al  0.000001  0.000001 11.199412
Al -0.000014  0.000000  4.356405
Al  0.002834 -2.774865  6.254197
Al  0.004416 -2.762849 12.780723
Al -0.002398 -2.754162 15.431038
Al  0.002075 -2.764904  8.926087
Al  0.002396 -5.511817 10.594270
Al -0.002078 -5.501075 17.099221
Al -0.002843 -5.491119 19.771098
Al -0.004426 -5.503134 13.244611
Al -2.404511  1.384956  6.254210
Al -2.394911  1.377595 12.780710
Al -2.383979  1.379162 15.431051
Al -2.395512  1.380654  8.926087
Al -2.396831 -1.384102 10.620348
Al -2.387138 -1.377836 17.107225
Al -2.386443 -1.377898 19.764111
Al -2.389858 -1.381465 13.273552
Al -2.389574 -4.133086 14.936556
Al -2.386373 -4.128056 21.447181
Al -2.386867 -4.132002 24.101790
Al -2.388077 -4.130850 17.594353
Al -4.774568  2.753822 10.594284
Al -4.763027  2.752334 17.099222
Al -4.754007  2.748012 19.771112
Al -4.763636  2.755397 13.244612
Al -4.771684 -0.000994 14.936205
Al -4.770474 -0.002138 21.443629
Al -4.768970  0.000086 24.101426
Al -4.772171 -0.004945 17.590801
Al -4.772108 -2.755090 19.273871
Al -4.768693 -2.751523 25.764430
Al -4.761720 -2.748894 28.417647
Al -4.771413 -2.755152 21.930757
Al  2.401693  1.389902  6.254198
Al  2.390491  1.385261 12.780711
Al  2.386375  1.375007 15.431038
Al  2.393433  1.384256  8.926100
Al  2.397082 -1.383657 10.620335
Al  2.386810 -1.378395 17.107212
Al  2.386517 -1.377762 19.764098
Al  2.391312 -1.378945 13.273552
Al  2.386701 -4.131897 14.936192
Al  2.387088 -4.130276 21.443616
Al  2.384397 -4.130094 24.101426
Al  2.390366 -4.130351 17.590801
Al -0.000255  2.767765 10.620336
Al  0.000326  2.756239 17.107212
Al -0.000075  2.755669 19.764098
Al -0.001457  2.760417 13.273565
Al  0.000002  0.000001 14.946434
Al  0.000002  0.000002 21.443213
Al  0.000002  0.000002 24.100919
Al  0.000002  0.000001 17.597620
Al  0.000537 -2.751334 19.274757
Al -0.000257 -2.751801 25.782362
Al  0.000524 -2.753251 28.439522
Al  0.001010 -2.752690 21.934479
Al -2.384564  4.135974 14.936557
Al -2.381801  4.130684 21.447169
Al -2.384972  4.133086 24.101778
Al -2.383390  4.133561 17.594354
Al -2.382991  1.375211 19.274744
Al -2.382997  1.376125 25.782363
Al -2.384644  1.376175 28.439522
Al -2.384415  1.375472 21.934480
Al -2.384130 -1.377083 23.611135
Al -2.383400 -1.377223 30.116177
Al -2.382454 -1.376124 32.775900
Al -2.383257 -1.375670 26.268294
Al  4.772175  2.757990 10.594272
Al  4.765110  2.748745 17.099223
Al  4.756878  2.743108 19.771112
Al  4.768067  2.747740 13.244612
Al  4.774143 -0.002885 14.936557
Al  4.768180 -0.002632 21.447169
Al  4.771838 -0.001082 24.101791
Al  4.771466 -0.002703 17.594367
Al  4.772029 -2.755221 19.273872
Al  4.767227 -2.754042 25.764444
Al  4.761457 -2.749322 28.417648
Al  4.771736 -2.754588 21.930758
Al  2.384981  4.132898 14.936193
Al  2.383392  4.132427 21.443630
Al  2.384567  4.130006 24.101440
Al  2.381810  4.135300 17.590802
Al  2.382460  1.376136 19.274757
Al  2.383262  1.375682 25.782363
Al  2.384129  1.377083 28.439522
Al  2.383405  1.377235 21.934480
Al  2.384656 -1.376167 23.611122
Al  2.384413 -1.375472 30.116177
Al  2.382996 -1.375207 32.775887
Al  2.382996 -1.376117 26.268281
Al  0.000084  5.510315 19.273873
Al  0.001467  5.505567 25.764445
Al  0.000264  5.498210 28.417648
Al -0.000316  5.509745 21.930759
Al -0.000511  2.753260 23.611122
Al -0.001004  2.752702 30.116178
Al -0.000525  2.751343 32.775887
Al  0.000269  2.751809 26.268282
Al  0.000003  0.000002 27.949751
Al  0.000004  0.000003 34.453011
Al  0.000004  0.000003 37.104237
Al  0.000003  0.000002 30.607418
%ENDBLOCK POSITIONS_ABS

FIX_ALL_CELL: TRUE
KPOINT_MP_GRID: 1 1 1


%BLOCK species_q
   barn
   Li        0.3260000000E-01
%ENDBLOCK species_q

